%chk=/oasis/projects/nsf/lhu120/cmw414/rc_slip_x_new/n_0_2A/dimer/dimer.chk
%mem=110GB
#p b3lyp/6-311g(d,p) nosymm pop=full iop(3/33=1) punch=mo

c47

2 1
 O                  1.86343256   -2.18814168   -0.63312396
 O                 -1.87688744    1.76594132   -0.63317696
 C                  3.69461456   -0.67140268   -0.87047896
 C                 -1.39648944   -0.60712468   -0.87219696
 C                  5.97175156   -1.62878468   -0.73581696
 C                  0.95630456   -1.17504168   -0.77241696
 C                  3.19421256   -1.96292068   -0.63793396
 C                  5.65376956    0.77013232   -1.23999596
 C                  1.38305156    0.18492932   -0.87218096
 C                 -3.20766744    1.54071032   -0.63799196
 C                 -2.81321944   -0.85705968   -1.03609996
 C                 -3.70805744    0.24918032   -0.87049696
 C                 -0.37497644   -1.59266368   -0.78251796
 C                  0.36153156    1.17047132   -0.78252296
 C                  5.10807156   -0.51188368   -0.94441996
 C                 -0.96975044    0.75284632   -0.77244796
 C                  5.39488456   -2.90675768   -0.47207296
 H                  6.04966056   -3.75780568   -0.31297796
 C                  4.74462556    1.84550032   -1.48258496
 H                  5.14791656    2.81613132   -1.75583896
 C                  3.38157356    1.68676032   -1.38711396
 H                  2.74968056    2.53497832   -1.59754396
 C                  4.02720956   -3.07643968   -0.43155996
 H                  3.57365556   -4.04439768   -0.25108496
 C                 -5.12151244    0.08963932   -0.94441896
 C                  2.79978656    0.43484332   -1.03611196
 C                  7.36964356   -1.42936968   -0.80567596
 H                  8.03205756   -2.27390668   -0.64047896
 C                  7.05237556    0.92132132   -1.30766596
 H                  7.47035056    1.89702532   -1.53701096
 C                 -0.64793744   -3.04866968   -0.59509396
 C                 -5.66719544   -1.19239768   -1.23993096
 C                  0.63446856    2.62647732   -0.59506596
 C                 -3.39498944   -2.10900768   -1.38701396
 H                 -2.76308144   -2.95723068   -1.59738596
 C                 -4.04067744    2.65422632   -0.43164996
 H                 -3.58713344    3.62219432   -0.25120396
 C                 -7.06580044   -1.34360768   -1.30758296
 H                 -7.48376544   -2.31932768   -1.53687896
 C                  7.89727656   -0.17032768   -1.08596396
 H                  8.97295756   -0.03707868   -1.13791896
 C                 -5.40835044    2.48452732   -0.47215796
 H                 -6.06313544    3.33557232   -0.31308796
 C                  1.19132356    3.07285032    0.61237504
 H                  1.43075056    2.35253132    1.38925504
 C                 -5.98520444    1.20653832   -0.73585396
 C                 -4.75804044   -2.26777068   -1.48246496
 H                 -5.16132144   -3.23842268   -1.75565596
 C                 -1.20495544   -3.49503768    0.61227204
 H                 -1.44447744   -2.77471768    1.38912204
 C                 -0.33428944   -3.98126668   -1.59421096
 H                  0.10494656   -3.63898068   -2.52632896
 C                 -7.38309444    1.00710232   -0.80569496
 H                 -8.04551744    1.85163832   -0.64052696
 C                 -1.46487044   -4.85334768    0.80924704
 H                 -1.90033044   -5.18805568    1.74603204
 C                 -1.16705344   -5.77762768   -0.19748196
 H                 -1.37357744   -6.83295368   -0.04661296
 C                  1.45120356    4.43116132    0.80938404
 H                  1.88654356    4.76587132    1.74622404
 C                  0.32092856    3.55907532   -1.59421596
 H                 -0.11819244    3.21678732   -2.52638696
 C                 -7.91071344   -0.25195768   -1.08592496
 H                 -8.98639244   -0.38522368   -1.13786596
 C                 -0.59829944   -5.33868768   -1.39838196
 H                 -0.36076744   -6.05187768   -2.18204296
 C                  1.15351056    5.35543932   -0.19738296
 H                  1.36000956    6.41076732   -0.04648696
 C                  0.58490756    4.91649632   -1.39835396
 H                  0.34746656    5.62968632   -2.18204196
 O                 12.05314470   -1.28180066    3.01095640
 O                  8.05671025    2.13147298    1.59573882
 C                 13.78221035    0.16395131    2.21710796
 C                  8.69897085   -0.12530836    2.23900728
 C                 16.11586518   -0.51932955    2.67235455
 C                 11.08257248   -0.45479269    2.51830771
 C                 13.36573325   -0.98353361    2.91160295
 C                 15.64616568    1.50024985    1.32669739
 C                 11.41879062    0.79982373    1.92292380
 C                  6.74428121    1.82967014    1.68614166
 C                  7.30507822   -0.51420315    2.19126035
 C                  6.33549180    0.51178511    1.94799799
 C                  9.78262663   -0.93709445    2.67433678
 C                 10.33216798    1.67731944    1.65443314
 C                 15.18282350    0.38157756    2.07676593
 C                  9.03188837    1.20240712    1.82923335
 C                 15.62168269   -1.64804535    3.39161510
 H                 16.32931593   -2.33468613    3.84560316
 C                 14.67111325    2.34705442    0.71513926
 H                 15.01289153    3.17521582    0.10132152
 C                 13.32037733    2.14148757    0.87475938
 H                 12.63660940    2.80825903    0.37383967
 C                 14.26797522   -1.88421808    3.50416155
 H                 13.87740584   -2.74733085    4.03115022
 C                 12.81810001    1.06858418    1.66568953
 C                 17.49820892   -0.26425127    2.52132627
 H                 18.21292480   -0.94209199    2.97853328
 C                 17.03241812    1.71142803    1.19538081
 H                 17.38778069    2.56138923    0.62041653
 C                  9.60481807   -2.23818777    3.38506119
 C                  4.48375149   -1.09529663    2.15096705
 C                 10.50376579    3.11576388    1.29246633
 C                  6.81440394   -1.84430935    2.32919880
 H                  7.50513183   -2.66526219    2.43864184
 C                  5.83521527    2.88156607    1.47754012
 H                  6.21981759    3.87692538    1.28631805
 C                  3.09973473   -1.35607490    2.15639925
 H                  2.75195235   -2.37409187    2.30468876
 C                 17.94481681    0.83746803    1.79407069
 H                 19.00985772    1.01566581    1.68693691
 C                  4.48284805    2.61569239    1.51471774
 H                  3.76995523    3.41890235    1.35672450
 C                 11.00944569    4.01046108    2.24695828
 H                 11.28376257    3.64306624    3.23158946
 C                  3.99738414    1.29371375    1.74329876
 C                  5.46682141   -2.11984944    2.31120976
 C                  9.05912273   -2.24812968    4.67709984
 H                  8.75906920   -1.31146883    5.13792732
 C                  9.99671761   -3.44819519    2.79460050
 H                 10.42734590   -3.44204460    1.79787918
 C                  2.61734934    0.98743140    1.76436972
 H                  1.89717240    1.78631310    1.61450664
 C                  8.88762297   -3.45417482    5.36076930
 H                  8.46017672   -3.45132519    6.35901906
 C                  9.26329743   -4.66033647    4.76032402
 H                  9.12551354   -5.59847008    5.28951917
 C                 11.17440839    5.36085668    1.92981795
 H                 11.57081364    6.04447868    2.67462981
 C                 10.14495210    3.59363401    0.02390811
 H                  9.74520577    2.90443207   -0.71374672
 C                  2.18000707   -0.31967200    1.97017352
 C                  9.82109195   -4.65411541    3.47691573
 H                 10.11879471   -5.58679163    3.00715609
 C                 10.83208729    5.82929959    0.65707751
 H                 10.96486595    6.87799710    0.40861832
 C                 10.31408261    4.94306389   -0.29401088
 H                 10.04233720    5.30148489   -1.28238019
 C                  4.93732235    0.23996303    1.95078892
 H                  5.13898038   -3.13307410    2.41511377
 H                  1.13152585   -0.53293304    1.98051118

 1 6 1.0 7 1.0
 2 10 1.0 16 1.0
 3 7 1.5 15 1.5 26 1.5
 4 11 1.0 13 1.5 16 1.5
 5 15 1.5 17 1.5 27 1.5
 6 9 1.5 13 1.5
 7 23 1.5
 8 15 1.5 19 1.5 29 1.5
 9 14 1.5 26 1.0
 10 12 1.5 36 1.5
 11 12 1.5 34 1.5
 12 25 1.5
 13 31 1.0
 14 16 1.5 33 1.0
 15
 16
 17 18 1.0 23 2.0
 18
 19 20 1.0 21 2.0
 20
 21 22 1.0 26 1.5
 22
 23 24 1.0
 24
 25 32 1.5 46 1.5
 26
 27 28 1.0 40 1.5
 28
 29 30 1.0 40 1.5
 30
 31 49 1.5 51 1.5
 32 38 1.5 47 1.5
 33 44 1.5 61 1.5
 34 35 1.0 47 2.0
 35
 36 37 1.0 42 2.0
 37
 38 39 1.0 63 1.5
 39
 40 41 1.0
 41
 42 43 1.0 46 1.5
 43
 44 45 1.0 59 1.5
 45
 46 53 1.5
 47 48 1.0
 48
 49 50 1.0 55 1.5
 50
 51 52 1.0 65 1.5
 52
 53 54 1.0 63 1.5
 54
 55 56 1.0 57 1.5
 56
 57 58 1.0 65 1.5
 58
 59 60 1.0 67 1.5
 60
 61 62 1.0 69 1.5
 62
 63 64 1.0
 64
 65 66 1.0
 66
 67 68 1.0 69 1.5
 68
 69 70 1.0
 70
 71 76 1.0 77 1.0
 72 80 1.0 86 1.0
 73 77 1.5 85 1.5 95 1.5
 74 81 1.0 83 1.5 86 1.5
 75 85 1.5 87 1.5 96 1.5
 76 79 1.5 83 1.5
 77 93 1.5
 78 85 1.5 89 1.5 98 1.5
 79 84 1.5 95 1.0
 80 82 1.5 105 1.5
 81 82 1.5 103 1.5
 82 140 1.5
 83 100 1.0
 84 86 1.5 102 1.0
 85
 86
 87 88 1.0 93 2.0
 88
 89 90 1.0 91 2.0
 90
 91 92 1.0 95 1.5
 92
 93 94 1.0
 94
 95
 96 97 1.0 109 1.5
 97
 98 99 1.0 109 1.5
 99
 100 118 1.5 120 1.5
 101 107 1.5 116 1.5 140 1.5
 102 113 1.5 130 1.5
 103 104 1.0 116 2.0
 104
 105 106 1.0 111 2.0
 106
 107 108 1.0 132 1.5
 108
 109 110 1.0
 110
 111 112 1.0 115 1.5
 112
 113 114 1.0 128 1.5
 114
 115 122 1.5 140 1.5
 116 117 1.0
 117
 118 119 1.0 124 1.5
 119
 120 121 1.0 134 1.5
 121
 122 123 1.0 132 1.5
 123
 124 125 1.0 126 1.5
 125
 126 127 1.0 134 1.5
 127
 128 129 1.0 136 1.5
 129
 130 131 1.0 138 1.5
 131
 132 133 1.0
 133
 134 135 1.0
 135
 136 137 1.0 138 1.5
 137
 138 139 1.0
 139
 140



















































