%chk=/home/cmw414/pcpl_transfer_integral/rc_stack/3_4A/dimer/dimer.chk
%nprocshared=rc_stack
%mem=110GB
#p b3lyp/6-311g(d,p) nosymm pop=full iop(3/33=1) punch=mo

c47

2 1
 O                  1.86006732   -2.29369752   -1.01893044
 O                 -1.88025268    1.66038548   -1.01898344
 C                  3.69124932   -0.77695852   -1.25628544
 C                 -1.39985468   -0.71268052   -1.25800344
 C                  5.96838632   -1.73434052   -1.12162344
 C                  0.95293932   -1.28059752   -1.15822344
 C                  3.19084732   -2.06847652   -1.02374044
 C                  5.65040432    0.66457648   -1.62580244
 C                  1.37968632    0.07937348   -1.25798744
 C                 -3.21103268    1.43515448   -1.02379844
 C                 -2.81658468   -0.96261552   -1.42190644
 C                 -3.71142268    0.14362448   -1.25630344
 C                 -0.37834168   -1.69821952   -1.16832444
 C                  0.35816632    1.06491548   -1.16832944
 C                  5.10470632   -0.61743952   -1.33022644
 C                 -0.97311568    0.64729048   -1.15825444
 C                  5.39151932   -3.01231352   -0.85787944
 H                  6.04629532   -3.86336152   -0.69878444
 C                  4.74126032    1.73994448   -1.86839144
 H                  5.14455132    2.71057548   -2.14164544
 C                  3.37820832    1.58120448   -1.77292044
 H                  2.74631532    2.42942248   -1.98335044
 C                  4.02384432   -3.18199552   -0.81736644
 H                  3.57029032   -4.14995352   -0.63689144
 C                 -5.12487768   -0.01591652   -1.33022544
 C                  2.79642132    0.32928748   -1.42191844
 C                  7.36627832   -1.53492552   -1.19148244
 H                  8.02869232   -2.37946252   -1.02628544
 C                  7.04901032    0.81576548   -1.69347244
 H                  7.46698532    1.79146948   -1.92281744
 C                 -0.65130268   -3.15422552   -0.98090044
 C                 -5.67056068   -1.29795352   -1.62573744
 C                  0.63110332    2.52092148   -0.98087244
 C                 -3.39835468   -2.21456352   -1.77282044
 H                 -2.76644668   -3.06278652   -1.98319244
 C                 -4.04404268    2.54867048   -0.81745644
 H                 -3.59049868    3.51663848   -0.63701044
 C                 -7.06916568   -1.44916352   -1.69338944
 H                 -7.48713068   -2.42488352   -1.92268544
 C                  7.89391132   -0.27588352   -1.47177044
 H                  8.96959232   -0.14263452   -1.52372544
 C                 -5.41171568    2.37897148   -0.85796444
 H                 -6.06650068    3.23001648   -0.69889444
 C                  1.18795832    2.96729448    0.22656856
 H                  1.42738532    2.24697548    1.00344856
 C                 -5.98856968    1.10098248   -1.12166044
 C                 -4.76140568   -2.37332652   -1.86827144
 H                 -5.16468668   -3.34397852   -2.14146244
 C                 -1.20832068   -3.60059352    0.22646556
 H                 -1.44784268   -2.88027352    1.00331556
 C                 -0.33765468   -4.08682252   -1.98001744
 H                  0.10158132   -3.74453652   -2.91213544
 C                 -7.38645968    0.90154648   -1.19150144
 H                 -8.04888268    1.74608248   -1.02633344
 C                 -1.46823568   -4.95890352    0.42344056
 H                 -1.90369568   -5.29361152    1.36022556
 C                 -1.17041868   -5.88318352   -0.58328844
 H                 -1.37694268   -6.93850952   -0.43241944
 C                  1.44783832    4.32560548    0.42357756
 H                  1.88317832    4.66031548    1.36041756
 C                  0.31756332    3.45351948   -1.98002244
 H                 -0.12155768    3.11123148   -2.91219344
 C                 -7.91407868   -0.35751352   -1.47173144
 H                 -8.98975768   -0.49077952   -1.52367244
 C                 -0.60166468   -5.44424352   -1.78418844
 H                 -0.36413268   -6.15743352   -2.56784944
 C                  1.15014532    5.24988348   -0.58318944
 H                  1.35664432    6.30521148   -0.43229344
 C                  0.58154232    4.81094048   -1.78416044
 H                  0.34410132    5.52413048   -2.56784844
 O                 12.24913308   -1.24197860    3.00929613
 O                  8.25269863    2.17129504    1.59407855
 C                 13.97819873    0.20377337    2.21544769
 C                  8.89495923   -0.08548630    2.23734701
 C                 16.31185356   -0.47950749    2.67069428
 C                 11.27856086   -0.41497063    2.51664744
 C                 13.56172163   -0.94371155    2.90994268
 C                 15.84215406    1.54007191    1.32503712
 C                 11.61477900    0.83964579    1.92126353
 C                  6.94026959    1.86949220    1.68448139
 C                  7.50106660   -0.47438109    2.18960008
 C                  6.53148018    0.55160717    1.94633772
 C                  9.97861501   -0.89727239    2.67267651
 C                 10.52815636    1.71714150    1.65277287
 C                 15.37881188    0.42139962    2.07510566
 C                  9.22787675    1.24222918    1.82757308
 C                 15.81767107   -1.60822329    3.38995483
 H                 16.52530431   -2.29486407    3.84394289
 C                 14.86710163    2.38687648    0.71347899
 H                 15.20887991    3.21503788    0.09966125
 C                 13.51636571    2.18130963    0.87309911
 H                 12.83259778    2.84808109    0.37217940
 C                 14.46396360   -1.84439602    3.50250128
 H                 14.07339422   -2.70750879    4.02948995
 C                 13.01408839    1.10840624    1.66402926
 C                 17.69419730   -0.22442921    2.51966600
 H                 18.40891318   -0.90226993    2.97687301
 C                 17.22840650    1.75125009    1.19372054
 H                 17.58376907    2.60121129    0.61875626
 C                  9.80080645   -2.19836571    3.38340092
 C                  4.67973987   -1.05547457    2.14930678
 C                 10.69975417    3.15558594    1.29080606
 C                  7.01039232   -1.80448729    2.32753853
 H                  7.70112021   -2.62544013    2.43698157
 C                  6.03120365    2.92138813    1.47587985
 H                  6.41580597    3.91674744    1.28465778
 C                  3.29572311   -1.31625284    2.15473898
 H                  2.94794073   -2.33426981    2.30302849
 C                 18.14080519    0.87729009    1.79241042
 H                 19.20584610    1.05548787    1.68527664
 C                  4.67883643    2.65551445    1.51305747
 H                  3.96594361    3.45872441    1.35506423
 C                 11.20543407    4.05028314    2.24529801
 H                 11.47975095    3.68288830    3.22992919
 C                  4.19337252    1.33353581    1.74163849
 C                  5.66280979   -2.08002738    2.30954949
 H                  5.33006108   -3.10841972    2.41500891
 C                  9.25511111   -2.20830762    4.67543957
 H                  8.95505758   -1.27164677    5.13626705
 C                 10.19270599   -3.40837313    2.79294023
 H                 10.62333428   -3.40222254    1.79621891
 C                  2.81333772    1.02725346    1.76270945
 H                  2.09316078    1.82613516    1.61284637
 C                  9.08361135   -3.41435276    5.35910903
 H                  8.65616510   -3.41150313    6.35735879
 C                  9.45928581   -4.62051441    4.75866375
 H                  9.32150192   -5.55864802    5.28785890
 C                 11.37039677    5.40067874    1.92815768
 H                 11.76680202    6.08430074    2.67296954
 C                 10.34094048    3.63345607    0.02224784
 H                  9.94119415    2.94425413   -0.71540699
 C                  2.37599545   -0.27984994    1.96851325
 H                  1.31267231   -0.49612983    1.97899725
 C                 10.01708033   -4.61429335    3.47525546
 H                 10.31478309   -5.54696957    3.00549582
 C                 11.02807567    5.86912165    0.65541724
 H                 11.16085433    6.91781916    0.40695805
 C                 10.51007099    4.98288595   -0.29567115
 H                 10.23832558    5.34130695   -1.28404046
 C                  5.13331073    0.27978509    1.94912865

 1 6 1.0 7 1.0
 2 10 1.0 16 1.0
 3 7 1.5 15 1.5 26 1.5
 4 11 1.0 13 1.5 16 1.5
 5 15 1.5 17 1.5 27 1.5
 6 9 1.5 13 1.5
 7 23 1.5
 8 15 1.5 19 1.5 29 1.5
 9 14 1.5 26 1.0
 10 12 1.5 36 1.5
 11 12 1.5 34 1.5
 12 25 1.5
 13 31 1.0
 14 16 1.5 33 1.0
 15
 16
 17 18 1.0 23 2.0
 18
 19 20 1.0 21 2.0
 20
 21 22 1.0 26 1.5
 22
 23 24 1.0
 24
 25 32 1.5 46 1.5
 26
 27 28 1.0 40 1.5
 28
 29 30 1.0 40 1.5
 30
 31 49 1.5 51 1.5
 32 38 1.5 47 1.5
 33 44 1.5 61 1.5
 34 35 1.0 47 2.0
 35
 36 37 1.0 42 2.0
 37
 38 39 1.0 63 1.5
 39
 40 41 1.0
 41
 42 43 1.0 46 1.5
 43
 44 45 1.0 59 1.5
 45
 46 53 1.5
 47 48 1.0
 48
 49 50 1.0 55 1.5
 50
 51 52 1.0 65 1.5
 52
 53 54 1.0 63 1.5
 54
 55 56 1.0 57 1.5
 56
 57 58 1.0 65 1.5
 58
 59 60 1.0 67 1.5
 60
 61 62 1.0 69 1.5
 62
 63 64 1.0
 64
 65 66 1.0
 66
 67 68 1.0 69 1.5
 68
 69 70 1.0
 70
 71 76 1.0 77 1.0
 72 80 1.0 86 1.0
 73 77 1.5 85 1.5 95 1.5
 74 81 1.0 83 1.5 86 1.5
 75 85 1.5 87 1.5 96 1.5
 76 79 1.5 83 1.5
 77 93 1.5
 78 85 1.5 89 1.5 98 1.5
 79 84 1.5 95 1.0
 80 82 1.5 105 1.5
 81 82 1.5 103 1.5
 82 140 1.5
 83 100 1.0
 84 86 1.5 102 1.0
 85
 86
 87 88 1.0 93 2.0
 88
 89 90 1.0 91 2.0
 90
 91 92 1.0 95 1.5
 92
 93 94 1.0
 94
 95
 96 97 1.0 109 1.5
 97
 98 99 1.0 109 1.5
 99
 100 118 1.5 120 1.5
 101 107 1.5 116 1.5 140 1.5
 102 113 1.5 130 1.5
 103 104 1.0 116 2.0
 104
 105 106 1.0 111 2.0
 106
 107 108 1.0 132 1.5
 108
 109 110 1.0
 110
 111 112 1.0 115 1.5
 112
 113 114 1.0 128 1.5
 114
 115 122 1.5 140 1.5
 116 117 1.0
 117
 118 119 1.0 124 1.5
 119
 120 121 1.0 134 1.5
 121
 122 123 1.0 132 1.5
 123
 124 125 1.0 126 1.5
 125
 126 127 1.0 134 1.5
 127
 128 129 1.0 136 1.5
 129
 130 131 1.0 138 1.5
 131
 132 133 1.0
 133
 134 135 1.0
 135
 136 137 1.0 138 1.5
 137
 138 139 1.0
 139
 140

