%chk=/oasis/projects/nsf/lhu120/cmw414/rc_slip_y_90/3_5A/dimer/dimer.chk
%mem=110GB
#p b3lyp/6-311g(d,p) nosymm pop=full iop(3/33=1) punch=mo

c47

2 1
 O                  1.86343256   -2.18814168   -0.63312396
 O                 -1.87688744    1.76594132   -0.63317696
 C                  3.69461456   -0.67140268   -0.87047896
 C                 -1.39648944   -0.60712468   -0.87219696
 C                  5.97175156   -1.62878468   -0.73581696
 C                  0.95630456   -1.17504168   -0.77241696
 C                  3.19421256   -1.96292068   -0.63793396
 C                  5.65376956    0.77013232   -1.23999596
 C                  1.38305156    0.18492932   -0.87218096
 C                 -3.20766744    1.54071032   -0.63799196
 C                 -2.81321944   -0.85705968   -1.03609996
 C                 -3.70805744    0.24918032   -0.87049696
 C                 -0.37497644   -1.59266368   -0.78251796
 C                  0.36153156    1.17047132   -0.78252296
 C                  5.10807156   -0.51188368   -0.94441996
 C                 -0.96975044    0.75284632   -0.77244796
 C                  5.39488456   -2.90675768   -0.47207296
 H                  6.04966056   -3.75780568   -0.31297796
 C                  4.74462556    1.84550032   -1.48258496
 H                  5.14791656    2.81613132   -1.75583896
 C                  3.38157356    1.68676032   -1.38711396
 H                  2.74968056    2.53497832   -1.59754396
 C                  4.02720956   -3.07643968   -0.43155996
 H                  3.57365556   -4.04439768   -0.25108496
 C                 -5.12151244    0.08963932   -0.94441896
 C                  2.79978656    0.43484332   -1.03611196
 C                  7.36964356   -1.42936968   -0.80567596
 H                  8.03205756   -2.27390668   -0.64047896
 C                  7.05237556    0.92132132   -1.30766596
 H                  7.47035056    1.89702532   -1.53701096
 C                 -0.64793744   -3.04866968   -0.59509396
 C                 -5.66719544   -1.19239768   -1.23993096
 C                  0.63446856    2.62647732   -0.59506596
 C                 -3.39498944   -2.10900768   -1.38701396
 H                 -2.76308144   -2.95723068   -1.59738596
 C                 -4.04067744    2.65422632   -0.43164996
 H                 -3.58713344    3.62219432   -0.25120396
 C                 -7.06580044   -1.34360768   -1.30758296
 H                 -7.48376544   -2.31932768   -1.53687896
 C                  7.89727656   -0.17032768   -1.08596396
 H                  8.97295756   -0.03707868   -1.13791896
 C                 -5.40835044    2.48452732   -0.47215796
 H                 -6.06313544    3.33557232   -0.31308796
 C                  1.19132356    3.07285032    0.61237504
 H                  1.43075056    2.35253132    1.38925504
 C                 -5.98520444    1.20653832   -0.73585396
 C                 -4.75804044   -2.26777068   -1.48246496
 H                 -5.16132144   -3.23842268   -1.75565596
 C                 -1.20495544   -3.49503768    0.61227204
 H                 -1.44447744   -2.77471768    1.38912204
 C                 -0.33428944   -3.98126668   -1.59421096
 H                  0.10494656   -3.63898068   -2.52632896
 C                 -7.38309444    1.00710232   -0.80569496
 H                 -8.04551744    1.85163832   -0.64052696
 C                 -1.46487044   -4.85334768    0.80924704
 H                 -1.90033044   -5.18805568    1.74603204
 C                 -1.16705344   -5.77762768   -0.19748196
 H                 -1.37357744   -6.83295368   -0.04661296
 C                  1.45120356    4.43116132    0.80938404
 H                  1.88654356    4.76587132    1.74622404
 C                  0.32092856    3.55907532   -1.59421596
 H                 -0.11819244    3.21678732   -2.52638696
 C                 -7.91071344   -0.25195768   -1.08592496
 H                 -8.98639244   -0.38522368   -1.13786596
 C                 -0.59829944   -5.33868768   -1.39838196
 H                 -0.36076744   -6.05187768   -2.18204296
 C                  1.15351056    5.35543932   -0.19738296
 H                  1.36000956    6.41076732   -0.04648696
 C                  0.58490756    4.91649632   -1.39835396
 H                  0.34746656    5.62968632   -2.18204196
 O                 13.74568962   -4.37720359    3.43436411
 O                  9.74925517   -0.96392995    2.01914653
 C                 15.47475527   -2.93145162    2.64051567
 C                 10.39151577   -3.22071129    2.66241499
 C                 17.80841010   -3.61473248    3.09576226
 C                 12.77511740   -3.55019562    2.94171542
 C                 15.05827817   -4.07893654    3.33501066
 C                 17.33871060   -1.59515308    1.75010510
 C                 13.11133554   -2.29557920    2.34633151
 C                  8.43682613   -1.26573279    2.10954937
 C                  8.99762314   -3.60960608    2.61466806
 C                  8.02803672   -2.58361782    2.37140570
 C                 11.47517155   -4.03249738    3.09774449
 C                 12.02471290   -1.41808349    2.07784085
 C                 16.87536842   -2.71382537    2.50017364
 C                 10.72443329   -1.89299581    2.25264106
 C                 17.31422761   -4.74344828    3.81502281
 H                 18.02186085   -5.43008906    4.26901087
 C                 16.36365817   -0.74834851    1.13854697
 H                 16.70543645    0.07981289    0.52472923
 C                 15.01292225   -0.95391536    1.29816709
 H                 14.32915432   -0.28714390    0.79724738
 C                 15.96052014   -4.97962101    3.92756926
 H                 15.56995076   -5.84273378    4.45455793
 C                 14.51064493   -2.02681875    2.08909724
 C                 19.19075384   -3.35965420    2.94473398
 H                 19.90546972   -4.03749492    3.40194099
 C                 18.72496304   -1.38397490    1.61878852
 H                 19.08032561   -0.53401370    1.04382424
 C                 11.29736299   -5.33359070    3.80846890
 C                  6.17629641   -4.19069956    2.57437476
 C                 12.19631071    0.02036095    1.71587404
 C                  8.50694886   -4.93971228    2.75260651
 H                  9.19767675   -5.76066512    2.86204955
 C                  7.52776019   -0.21383686    1.90094783
 H                  7.91236251    0.78152245    1.70972576
 C                  4.79227965   -4.45147783    2.57980696
 H                  4.44449727   -5.46949480    2.72809647
 C                 19.63736173   -2.25793490    2.21747840
 H                 20.70240264   -2.07973712    2.11034462
 C                  6.17539297   -0.47971054    1.93812545
 H                  5.46250015    0.32349942    1.78013221
 C                 12.70199061    0.91505815    2.67036599
 H                 12.97630749    0.54766331    3.65499717
 C                  5.68992906   -1.80168918    2.16670647
 C                  7.15936633   -5.21525237    2.73461747
 C                 10.75166765   -5.34353261    5.10050755
 H                 10.45161412   -4.40687176    5.56133503
 C                 11.68926253   -6.54359812    3.21800821
 H                 12.11989082   -6.53744753    2.22128689
 C                  4.30989426   -2.10797153    2.18777743
 H                  3.58971732   -1.30908983    2.03791435
 C                 10.58016789   -6.54957775    5.78417701
 H                 10.15272164   -6.54672812    6.78242677
 C                 10.95584235   -7.75573940    5.18373173
 H                 10.81805846   -8.69387301    5.71292688
 C                 12.86695331    2.26545375    2.35322566
 H                 13.26335856    2.94907575    3.09803752
 C                 11.83749702    0.49823108    0.44731582
 H                 11.43775069   -0.19097086   -0.29033901
 C                  3.87255199   -3.41507493    2.39358123
 C                 11.51363687   -7.74951834    3.90032344
 H                 11.81133963   -8.68219456    3.43056380
 C                 12.52463221    2.73389666    1.08048522
 H                 12.65741087    3.78259417    0.83202603
 C                 12.00662753    1.84766096    0.12939683
 H                 11.73488212    2.20608196   -0.85897248
 C                  6.62986727   -2.85543990    2.37419663
 H                  6.83152530   -6.22847703    2.83852148
 H                  2.82407077   -3.62833597    2.40391889

 1 6 1.0 7 1.0
 2 10 1.0 16 1.0
 3 7 1.5 15 1.5 26 1.5
 4 11 1.0 13 1.5 16 1.5
 5 15 1.5 17 1.5 27 1.5
 6 9 1.5 13 1.5
 7 23 1.5
 8 15 1.5 19 1.5 29 1.5
 9 14 1.5 26 1.0
 10 12 1.5 36 1.5
 11 12 1.5 34 1.5
 12 25 1.5
 13 31 1.0
 14 16 1.5 33 1.0
 15
 16
 17 18 1.0 23 2.0
 18
 19 20 1.0 21 2.0
 20
 21 22 1.0 26 1.5
 22
 23 24 1.0
 24
 25 32 1.5 46 1.5
 26
 27 28 1.0 40 1.5
 28
 29 30 1.0 40 1.5
 30
 31 49 1.5 51 1.5
 32 38 1.5 47 1.5
 33 44 1.5 61 1.5
 34 35 1.0 47 2.0
 35
 36 37 1.0 42 2.0
 37
 38 39 1.0 63 1.5
 39
 40 41 1.0
 41
 42 43 1.0 46 1.5
 43
 44 45 1.0 59 1.5
 45
 46 53 1.5
 47 48 1.0
 48
 49 50 1.0 55 1.5
 50
 51 52 1.0 65 1.5
 52
 53 54 1.0 63 1.5
 54
 55 56 1.0 57 1.5
 56
 57 58 1.0 65 1.5
 58
 59 60 1.0 67 1.5
 60
 61 62 1.0 69 1.5
 62
 63 64 1.0
 64
 65 66 1.0
 66
 67 68 1.0 69 1.5
 68
 69 70 1.0
 70
 71 76 1.0 77 1.0
 72 80 1.0 86 1.0
 73 77 1.5 85 1.5 95 1.5
 74 81 1.0 83 1.5 86 1.5
 75 85 1.5 87 1.5 96 1.5
 76 79 1.5 83 1.5
 77 93 1.5
 78 85 1.5 89 1.5 98 1.5
 79 84 1.5 95 1.0
 80 82 1.5 105 1.5
 81 82 1.5 103 1.5
 82 140 1.5
 83 100 1.0
 84 86 1.5 102 1.0
 85
 86
 87 88 1.0 93 2.0
 88
 89 90 1.0 91 2.0
 90
 91 92 1.0 95 1.5
 92
 93 94 1.0
 94
 95
 96 97 1.0 109 1.5
 97
 98 99 1.0 109 1.5
 99
 100 118 1.5 120 1.5
 101 107 1.5 116 1.5 140 1.5
 102 113 1.5 130 1.5
 103 104 1.0 116 2.0
 104
 105 106 1.0 111 2.0
 106
 107 108 1.0 132 1.5
 108
 109 110 1.0
 110
 111 112 1.0 115 1.5
 112
 113 114 1.0 128 1.5
 114
 115 122 1.5 140 1.5
 116 117 1.0
 117
 118 119 1.0 124 1.5
 119
 120 121 1.0 134 1.5
 121
 122 123 1.0 132 1.5
 123
 124 125 1.0 126 1.5
 125
 126 127 1.0 134 1.5
 127
 128 129 1.0 136 1.5
 129
 130 131 1.0 138 1.5
 131
 132 133 1.0
 133
 134 135 1.0
 135
 136 137 1.0 138 1.5
 137
 138 139 1.0
 139
 140









































