%chk=/oasis/projects/nsf/lhu120/cmw414/pent_y_stack/1_8A/dimer/dimer.chk
%nprocshared=24
%mem=110GB
#p b3lyp/6-311g(d,p) nosymm pop=full iop(3/33=1) punch=mo

c47

0 1
 C                 -7.98281912   -8.21435836    3.48125617
 C                 -7.95481912   -7.35835836    2.42525617
 C                 -7.33381912   -7.67635836    1.19025617
 C                 -7.31881912   -6.77735836    0.10525617
 C                 -6.66381912   -7.11035836   -1.11274383
 C                 -6.61481912   -6.24635836   -2.19474383
 C                 -6.06681912   -8.45435836   -1.24674383
 C                 -6.18181912   -9.29835836   -0.18874383
 C                 -6.70281912   -8.99435836    1.05625617
 C                 -6.82881912   -9.86335836    2.14725617
 C                 -7.34081912   -9.54635836    3.35225617
 H                 -8.47281912   -7.89535836    4.54825617
 H                 -8.36381912   -6.33435836    2.51825617
 H                 -7.75281912   -5.76435836    0.24125617
 H                 -7.08181912   -5.22835836   -2.04974383
 H                 -5.72381912  -10.30935836   -0.28074383
 H                 -6.37181912  -10.86935836    2.06825617
 H                 -7.35181912  -10.22535836    4.22925617
 C                 -6.01481912   -6.56535836   -3.43274383
 C                 -5.46681912   -8.77335836   -2.48474383
 C                 -5.41681912   -7.91035836   -3.56674383
 C                 -5.89981912   -5.72235836   -4.49074383
 H                 -4.99881912   -9.79235836   -2.62974383
 C                 -4.76281912   -8.24335836   -4.78474383
 C                 -5.37781912   -6.02635836   -5.73574383
 H                 -6.35781912   -4.71135836   -4.39874383
 C                 -4.74781912   -7.34435836   -5.86974383
 H                 -4.32881912   -9.25535836   -4.92074383
 C                 -5.25281912   -5.15735836   -6.82674383
 C                 -4.12681912   -7.66135836   -7.10474383
 C                 -4.74081912   -5.47435836   -8.03174383
 H                 -5.70981912   -4.15135836   -6.74774383
 C                 -4.09881912   -6.80635836   -8.16074383
 H                 -3.71781912   -8.68635836   -7.19774383
 H                 -4.72881912   -4.79535836   -8.90874383
 H                 -3.60881912   -7.12535836   -9.22774383
 C                 -5.55955519   -5.28557798    4.80563065
 C                 -5.53155519   -4.42957798    3.74963065
 C                 -4.91055519   -4.74757798    2.51463065
 C                 -4.89555519   -3.84857798    1.42963065
 C                 -4.24055519   -4.18157798    0.21163065
 C                 -4.19155519   -3.31757798   -0.87036935
 C                 -3.64355519   -5.52557798    0.07763065
 C                 -3.75855519   -6.36957798    1.13563065
 C                 -4.27955519   -6.06557798    2.38063065
 C                 -4.40555519   -6.93457798    3.47163065
 C                 -4.91755519   -6.61757798    4.67663065
 H                 -6.04955519   -4.96657798    5.87263065
 H                 -5.94055519   -3.40557798    3.84263065
 H                 -5.32955519   -2.83557798    1.56563065
 H                 -4.65855519   -2.29957798   -0.72536935
 H                 -3.30055519   -7.38057798    1.04363065
 H                 -3.94855519   -7.94057798    3.39263065
 H                 -4.92855519   -7.29657798    5.55363065
 C                 -3.59155519   -3.63657798   -2.10836935
 C                 -3.04355519   -5.84457798   -1.16036935
 C                 -2.99355519   -4.98157798   -2.24236935
 C                 -3.47655519   -2.79357798   -3.16636935
 H                 -2.57555519   -6.86357798   -1.30536935
 C                 -2.33955519   -5.31457798   -3.46036935
 C                 -2.95455519   -3.09757798   -4.41136935
 H                 -3.93455519   -1.78257798   -3.07436935
 C                 -2.32455519   -4.41557798   -4.54536935
 H                 -1.90555519   -6.32657798   -3.59636935
 C                 -2.82955519   -2.22857798   -5.50236935
 C                 -1.70355519   -4.73257798   -5.78036935
 C                 -2.31755519   -2.54557798   -6.70736935
 H                 -3.28655519   -1.22257798   -5.42336935
 C                 -1.67555519   -3.87757798   -6.83636935
 H                 -1.29455519   -5.75757798   -5.87336935
 H                 -2.30555519   -1.86657798   -7.58436935
 H                 -1.18555519   -4.19657798   -7.90336935

 1 2 2.0 11 1.0 12 1.0
 2 3 1.5 13 1.0
 3 4 1.5 9 1.0
 4 5 1.5 14 1.0
 5 6 2.0 7 1.0
 6 15 1.0 19 1.5
 7 8 2.0 20 1.5
 8 9 2.0 16 1.0
 9 10 1.5
 10 11 2.0 17 1.0
 11 18 1.0
 12
 13
 14
 15
 16
 17
 18
 19 21 1.0 22 2.0
 20 21 2.0 23 1.0
 21 24 1.5
 22 25 2.0 26 1.0
 23
 24 27 1.5 28 1.0
 25 27 1.0 29 1.5
 26
 27 30 1.5
 28
 29 31 2.0 32 1.0
 30 33 2.0 34 1.0
 31 33 1.0 35 1.0
 32
 33 36 1.0
 34
 35
 36
 37 38 2.0 47 1.0 48 1.0
 38 39 1.5 49 1.0
 39 40 1.5 45 1.0
 40 41 1.5 50 1.0
 41 42 2.0 43 1.0
 42 51 1.0 55 1.5
 43 44 2.0 56 1.5
 44 45 2.0 52 1.0
 45 46 1.5
 46 47 2.0 53 1.0
 47 54 1.0
 48
 49
 50
 51
 52
 53
 54
 55 57 1.0 58 2.0
 56 57 2.0 59 1.0
 57 60 1.5
 58 61 2.0 62 1.0
 59
 60 63 1.5 64 1.0
 61 63 1.0 65 1.5
 62
 63 66 1.5
 64
 65 67 2.0 68 1.0
 66 69 2.0 70 1.0
 67 69 1.0 71 1.0
 68
 69 72 1.0
 70
 71
 72


