%chk=/oasis/projects/nsf/lhu120/cmw414/rc_slip_y_90/n_0_2A/dimer/dimer.chk
%mem=110GB
#p b3lyp/6-311g(d,p) nosymm pop=full iop(3/33=1) punch=mo

c47

2 1
 O                  1.86343256   -2.18814168   -0.63312396
 O                 -1.87688744    1.76594132   -0.63317696
 C                  3.69461456   -0.67140268   -0.87047896
 C                 -1.39648944   -0.60712468   -0.87219696
 C                  5.97175156   -1.62878468   -0.73581696
 C                  0.95630456   -1.17504168   -0.77241696
 C                  3.19421256   -1.96292068   -0.63793396
 C                  5.65376956    0.77013232   -1.23999596
 C                  1.38305156    0.18492932   -0.87218096
 C                 -3.20766744    1.54071032   -0.63799196
 C                 -2.81321944   -0.85705968   -1.03609996
 C                 -3.70805744    0.24918032   -0.87049696
 C                 -0.37497644   -1.59266368   -0.78251796
 C                  0.36153156    1.17047132   -0.78252296
 C                  5.10807156   -0.51188368   -0.94441996
 C                 -0.96975044    0.75284632   -0.77244796
 C                  5.39488456   -2.90675768   -0.47207296
 H                  6.04966056   -3.75780568   -0.31297796
 C                  4.74462556    1.84550032   -1.48258496
 H                  5.14791656    2.81613132   -1.75583896
 C                  3.38157356    1.68676032   -1.38711396
 H                  2.74968056    2.53497832   -1.59754396
 C                  4.02720956   -3.07643968   -0.43155996
 H                  3.57365556   -4.04439768   -0.25108496
 C                 -5.12151244    0.08963932   -0.94441896
 C                  2.79978656    0.43484332   -1.03611196
 C                  7.36964356   -1.42936968   -0.80567596
 H                  8.03205756   -2.27390668   -0.64047896
 C                  7.05237556    0.92132132   -1.30766596
 H                  7.47035056    1.89702532   -1.53701096
 C                 -0.64793744   -3.04866968   -0.59509396
 C                 -5.66719544   -1.19239768   -1.23993096
 C                  0.63446856    2.62647732   -0.59506596
 C                 -3.39498944   -2.10900768   -1.38701396
 H                 -2.76308144   -2.95723068   -1.59738596
 C                 -4.04067744    2.65422632   -0.43164996
 H                 -3.58713344    3.62219432   -0.25120396
 C                 -7.06580044   -1.34360768   -1.30758296
 H                 -7.48376544   -2.31932768   -1.53687896
 C                  7.89727656   -0.17032768   -1.08596396
 H                  8.97295756   -0.03707868   -1.13791896
 C                 -5.40835044    2.48452732   -0.47215796
 H                 -6.06313544    3.33557232   -0.31308796
 C                  1.19132356    3.07285032    0.61237504
 H                  1.43075056    2.35253132    1.38925504
 C                 -5.98520444    1.20653832   -0.73585396
 C                 -4.75804044   -2.26777068   -1.48246496
 H                 -5.16132144   -3.23842268   -1.75565596
 C                 -1.20495544   -3.49503768    0.61227204
 H                 -1.44447744   -2.77471768    1.38912204
 C                 -0.33428944   -3.98126668   -1.59421096
 H                  0.10494656   -3.63898068   -2.52632896
 C                 -7.38309444    1.00710232   -0.80569496
 H                 -8.04551744    1.85163832   -0.64052696
 C                 -1.46487044   -4.85334768    0.80924704
 H                 -1.90033044   -5.18805568    1.74603204
 C                 -1.16705344   -5.77762768   -0.19748196
 H                 -1.37357744   -6.83295368   -0.04661296
 C                  1.45120356    4.43116132    0.80938404
 H                  1.88654356    4.76587132    1.74622404
 C                  0.32092856    3.55907532   -1.59421596
 H                 -0.11819244    3.21678732   -2.52638696
 C                 -7.91071344   -0.25195768   -1.08592496
 H                 -8.98639244   -0.38522368   -1.13786596
 C                 -0.59829944   -5.33868768   -1.39838196
 H                 -0.36076744   -6.05187768   -2.18204296
 C                  1.15351056    5.35543932   -0.19738296
 H                  1.36000956    6.41076732   -0.04648696
 C                  0.58490756    4.91649632   -1.39835396
 H                  0.34746656    5.62968632   -2.18204196
 O                 12.16361555   -1.06282288    2.98500660
 O                  8.16718110    2.35045076    1.56978902
 C                 13.89268120    0.38292909    2.19115816
 C                  8.80944170    0.09366942    2.21305748
 C                 16.22633603   -0.30035177    2.64640475
 C                 11.19304333   -0.23581491    2.49235791
 C                 13.47620410   -0.76455583    2.88565315
 C                 15.75663653    1.71922763    1.30074759
 C                 11.52926147    1.01880151    1.89697400
 C                  6.85475206    2.04864792    1.66019186
 C                  7.41554907   -0.29522537    2.16531055
 C                  6.44596265    0.73076289    1.92204819
 C                  9.89309748   -0.71811667    2.64838698
 C                 10.44263883    1.89629722    1.62848334
 C                 15.29329435    0.60055534    2.05081613
 C                  9.14235922    1.42138490    1.80328355
 C                 15.73215354   -1.42906757    3.36566530
 H                 16.43978678   -2.11570835    3.81965336
 C                 14.78158410    2.56603220    0.68918946
 H                 15.12336238    3.39419360    0.07537172
 C                 13.43084818    2.36046535    0.84880958
 H                 12.74708025    3.02723681    0.34788987
 C                 14.37844607   -1.66524030    3.47821175
 H                 13.98787669   -2.52835307    4.00520042
 C                 12.92857086    1.28756196    1.63973973
 C                 17.60867977   -0.04527349    2.49537647
 H                 18.32339565   -0.72311421    2.95258348
 C                 17.14288897    1.93040581    1.16943101
 H                 17.49825154    2.78036701    0.59446673
 C                  9.71528892   -2.01920999    3.35911139
 C                  4.59422234   -0.87631885    2.12501725
 C                 10.61423664    3.33474166    1.26651653
 C                  6.92487479   -1.62533157    2.30324900
 H                  7.61560268   -2.44628441    2.41269204
 C                  5.94568612    3.10054385    1.45159032
 H                  6.33028844    4.09590316    1.26036825
 C                  3.21020558   -1.13709712    2.13044945
 H                  2.86242320   -2.15511409    2.27873896
 C                 18.05528766    1.05644581    1.76812089
 H                 19.12032857    1.23464359    1.66098711
 C                  4.59331890    2.83467017    1.48876794
 H                  3.88042608    3.63788013    1.33077470
 C                 11.11991654    4.22943886    2.22100848
 H                 11.39423342    3.86204402    3.20563966
 C                  4.10785499    1.51269153    1.71734896
 C                  5.57729226   -1.90087166    2.28525996
 C                  9.16959358   -2.02915190    4.65115004
 H                  8.86954005   -1.09249105    5.11197752
 C                 10.10718846   -3.22921741    2.76865070
 H                 10.53781675   -3.22306682    1.77192938
 C                  2.72782019    1.20640918    1.73841992
 H                  2.00764325    2.00529088    1.58855684
 C                  8.99809382   -3.23519704    5.33481950
 H                  8.57064757   -3.23234741    6.33306926
 C                  9.37376828   -4.44135869    4.73437422
 H                  9.23598439   -5.37949230    5.26356937
 C                 11.28487924    5.57983446    1.90386815
 H                 11.68128449    6.26345646    2.64868001
 C                 10.25542295    3.81261179   -0.00204169
 H                  9.85567662    3.12340985   -0.73969652
 C                  2.29047792   -0.10069422    1.94422372
 C                  9.93156280   -4.43513763    3.45096593
 H                 10.22926556   -5.36781385    2.98120629
 C                 10.94255814    6.04827737    0.63112771
 H                 11.07533680    7.09697488    0.38266852
 C                 10.42455346    5.16204167   -0.31996068
 H                 10.15280805    5.52046267   -1.30832999
 C                  5.04779320    0.45894081    1.92483912
 H                  5.24945123   -2.91409632    2.38916397
 H                  1.24199670   -0.31395526    1.95456138

 1 6 1.0 7 1.0
 2 10 1.0 16 1.0
 3 7 1.5 15 1.5 26 1.5
 4 11 1.0 13 1.5 16 1.5
 5 15 1.5 17 1.5 27 1.5
 6 9 1.5 13 1.5
 7 23 1.5
 8 15 1.5 19 1.5 29 1.5
 9 14 1.5 26 1.0
 10 12 1.5 36 1.5
 11 12 1.5 34 1.5
 12 25 1.5
 13 31 1.0
 14 16 1.5 33 1.0
 15
 16
 17 18 1.0 23 2.0
 18
 19 20 1.0 21 2.0
 20
 21 22 1.0 26 1.5
 22
 23 24 1.0
 24
 25 32 1.5 46 1.5
 26
 27 28 1.0 40 1.5
 28
 29 30 1.0 40 1.5
 30
 31 49 1.5 51 1.5
 32 38 1.5 47 1.5
 33 44 1.5 61 1.5
 34 35 1.0 47 2.0
 35
 36 37 1.0 42 2.0
 37
 38 39 1.0 63 1.5
 39
 40 41 1.0
 41
 42 43 1.0 46 1.5
 43
 44 45 1.0 59 1.5
 45
 46 53 1.5
 47 48 1.0
 48
 49 50 1.0 55 1.5
 50
 51 52 1.0 65 1.5
 52
 53 54 1.0 63 1.5
 54
 55 56 1.0 57 1.5
 56
 57 58 1.0 65 1.5
 58
 59 60 1.0 67 1.5
 60
 61 62 1.0 69 1.5
 62
 63 64 1.0
 64
 65 66 1.0
 66
 67 68 1.0 69 1.5
 68
 69 70 1.0
 70
 71 76 1.0 77 1.0
 72 80 1.0 86 1.0
 73 77 1.5 85 1.5 95 1.5
 74 81 1.0 83 1.5 86 1.5
 75 85 1.5 87 1.5 96 1.5
 76 79 1.5 83 1.5
 77 93 1.5
 78 85 1.5 89 1.5 98 1.5
 79 84 1.5 95 1.0
 80 82 1.5 105 1.5
 81 82 1.5 103 1.5
 82 140 1.5
 83 100 1.0
 84 86 1.5 102 1.0
 85
 86
 87 88 1.0 93 2.0
 88
 89 90 1.0 91 2.0
 90
 91 92 1.0 95 1.5
 92
 93 94 1.0
 94
 95
 96 97 1.0 109 1.5
 97
 98 99 1.0 109 1.5
 99
 100 118 1.5 120 1.5
 101 107 1.5 116 1.5 140 1.5
 102 113 1.5 130 1.5
 103 104 1.0 116 2.0
 104
 105 106 1.0 111 2.0
 106
 107 108 1.0 132 1.5
 108
 109 110 1.0
 110
 111 112 1.0 115 1.5
 112
 113 114 1.0 128 1.5
 114
 115 122 1.5 140 1.5
 116 117 1.0
 117
 118 119 1.0 124 1.5
 119
 120 121 1.0 134 1.5
 121
 122 123 1.0 132 1.5
 123
 124 125 1.0 126 1.5
 125
 126 127 1.0 134 1.5
 127
 128 129 1.0 136 1.5
 129
 130 131 1.0 138 1.5
 131
 132 133 1.0
 133
 134 135 1.0
 135
 136 137 1.0 138 1.5
 137
 138 139 1.0
 139
 140





















































