%chk=/oasis/projects/nsf/lhu120/cmw414/pent_stack/7_9A/dimer/dimer.chk
%nprocshared=24
%mem=110GB
#p b3lyp/6-311g(d,p) nosymm pop=full iop(3/33=1) punch=mo

c47

0 1
 C                 -8.71269653   -6.57702505    3.64379411
 C                 -8.68469653   -5.72102505    2.58779411
 C                 -8.06369653   -6.03902505    1.35279411
 C                 -8.04869653   -5.14002505    0.26779411
 C                 -7.39369653   -5.47302505   -0.95020589
 C                 -7.34469653   -4.60902505   -2.03220589
 C                 -6.79669653   -6.81702505   -1.08420589
 C                 -6.91169653   -7.66102505   -0.02620589
 C                 -7.43269653   -7.35702505    1.21879411
 C                 -7.55869653   -8.22602505    2.30979411
 C                 -8.07069653   -7.90902505    3.51479411
 H                 -9.20269653   -6.25802505    4.71079411
 H                 -9.09369653   -4.69702505    2.68079411
 H                 -8.48269653   -4.12702505    0.40379411
 H                 -7.81169653   -3.59102505   -1.88720589
 H                 -6.45369653   -8.67202505   -0.11820589
 H                 -7.10169653   -9.23202505    2.23079411
 H                 -8.08169653   -8.58802505    4.39179411
 C                 -6.74469653   -4.92802505   -3.27020589
 C                 -6.19669653   -7.13602505   -2.32220589
 C                 -6.14669653   -6.27302505   -3.40420589
 C                 -6.62969653   -4.08502505   -4.32820589
 H                 -5.72869653   -8.15502505   -2.46720589
 C                 -5.49269653   -6.60602505   -4.62220589
 C                 -6.10769653   -4.38902505   -5.57320589
 H                 -7.08769653   -3.07402505   -4.23620589
 C                 -5.47769653   -5.70702505   -5.70720589
 H                 -5.05869653   -7.61802505   -4.75820589
 C                 -5.98269653   -3.52002505   -6.66420589
 C                 -4.85669653   -6.02402505   -6.94220589
 C                 -5.47069653   -3.83702505   -7.86920589
 H                 -6.43969653   -2.51402505   -6.58520589
 C                 -4.82869653   -5.16902505   -7.99820589
 H                 -4.44769653   -7.04902505   -7.03520589
 H                 -5.45869653   -3.15802505   -8.74620589
 H                 -4.33869653   -5.48802505   -9.06520589
 C                 -1.79330603   -3.74301743    6.19337875
 C                 -1.76530603   -2.88701743    5.13737875
 C                 -1.14430603   -3.20501743    3.90237875
 C                 -1.12930603   -2.30601743    2.81737875
 C                 -0.47430603   -2.63901743    1.59937875
 C                 -0.42530603   -1.77501743    0.51737875
 C                  0.12269397   -3.98301743    1.46537875
 C                  0.00769397   -4.82701743    2.52337875
 C                 -0.51330603   -4.52301743    3.76837875
 C                 -0.63930603   -5.39201743    4.85937875
 C                 -1.15130603   -5.07501743    6.06437875
 H                 -2.28330603   -3.42401743    7.26037875
 H                 -2.17430603   -1.86301743    5.23037875
 H                 -1.56330603   -1.29301743    2.95337875
 H                 -0.89230603   -0.75701743    0.66237875
 H                  0.46569397   -5.83801743    2.43137875
 H                 -0.18230603   -6.39801743    4.78037875
 H                 -1.16230603   -5.75401743    6.94137875
 C                  0.17469397   -2.09401743   -0.72062125
 C                  0.72269397   -4.30201743    0.22737875
 C                  0.77269397   -3.43901743   -0.85462125
 C                  0.28969397   -1.25101743   -1.77862125
 H                  1.19069397   -5.32101743    0.08237875
 C                  1.42669397   -3.77201743   -2.07262125
 C                  0.81169397   -1.55501743   -3.02362125
 H                 -0.16830603   -0.24001743   -1.68662125
 C                  1.44169397   -2.87301743   -3.15762125
 H                  1.86069397   -4.78401743   -2.20862125
 C                  0.93669397   -0.68601743   -4.11462125
 C                  2.06269397   -3.19001743   -4.39262125
 C                  1.44869397   -1.00301743   -5.31962125
 H                  0.47969397    0.31998257   -4.03562125
 C                  2.09069397   -2.33501743   -5.44862125
 H                  2.47169397   -4.21501743   -4.48562125
 H                  1.46069397   -0.32401743   -6.19662125
 H                  2.58069397   -2.65401743   -6.51562125

 1 2 2.0 11 1.0 12 1.0
 2 3 1.5 13 1.0
 3 4 1.5 9 1.0
 4 5 1.5 14 1.0
 5 6 2.0 7 1.0
 6 15 1.0 19 1.5
 7 8 2.0 20 1.5
 8 9 2.0 16 1.0
 9 10 1.5
 10 11 2.0 17 1.0
 11 18 1.0
 12
 13
 14
 15
 16
 17
 18
 19 21 1.0 22 2.0
 20 21 2.0 23 1.0
 21 24 1.5
 22 25 2.0 26 1.0
 23
 24 27 1.5 28 1.0
 25 27 1.0 29 1.5
 26
 27 30 1.5
 28
 29 31 2.0 32 1.0
 30 33 2.0 34 1.0
 31 33 1.0 35 1.0
 32
 33 36 1.0
 34
 35
 36
 37 38 2.0 47 1.0 48 1.0
 38 39 1.5 49 1.0
 39 40 1.5 45 1.0
 40 41 1.5 50 1.0
 41 42 2.0 43 1.0
 42 51 1.0 55 1.5
 43 44 2.0 56 1.5
 44 45 2.0 52 1.0
 45 46 1.5
 46 47 2.0 53 1.0
 47 54 1.0
 48
 49
 50
 51
 52
 53
 54
 55 57 1.0 58 2.0
 56 57 2.0 59 1.0
 57 60 1.5
 58 61 2.0 62 1.0
 59
 60 63 1.5 64 1.0
 61 63 1.0 65 1.5
 62
 63 66 1.5
 64
 65 67 2.0 68 1.0
 66 69 2.0 70 1.0
 67 69 1.0 71 1.0
 68
 69 72 1.0
 70
 71
 72


