%chk=/oasis/projects/nsf/lhu120/cmw414/rc_slip_x_new/1_2A/dimer/dimer.chk
%mem=110GB
#p b3lyp/6-311g(d,p) nosymm pop=full iop(3/33=1) punch=mo

c47

2 1
 O                  1.86343256   -2.18814168   -0.63312396
 O                 -1.87688744    1.76594132   -0.63317696
 C                  3.69461456   -0.67140268   -0.87047896
 C                 -1.39648944   -0.60712468   -0.87219696
 C                  5.97175156   -1.62878468   -0.73581696
 C                  0.95630456   -1.17504168   -0.77241696
 C                  3.19421256   -1.96292068   -0.63793396
 C                  5.65376956    0.77013232   -1.23999596
 C                  1.38305156    0.18492932   -0.87218096
 C                 -3.20766744    1.54071032   -0.63799196
 C                 -2.81321944   -0.85705968   -1.03609996
 C                 -3.70805744    0.24918032   -0.87049696
 C                 -0.37497644   -1.59266368   -0.78251796
 C                  0.36153156    1.17047132   -0.78252296
 C                  5.10807156   -0.51188368   -0.94441996
 C                 -0.96975044    0.75284632   -0.77244796
 C                  5.39488456   -2.90675768   -0.47207296
 H                  6.04966056   -3.75780568   -0.31297796
 C                  4.74462556    1.84550032   -1.48258496
 H                  5.14791656    2.81613132   -1.75583896
 C                  3.38157356    1.68676032   -1.38711396
 H                  2.74968056    2.53497832   -1.59754396
 C                  4.02720956   -3.07643968   -0.43155996
 H                  3.57365556   -4.04439768   -0.25108496
 C                 -5.12151244    0.08963932   -0.94441896
 C                  2.79978656    0.43484332   -1.03611196
 C                  7.36964356   -1.42936968   -0.80567596
 H                  8.03205756   -2.27390668   -0.64047896
 C                  7.05237556    0.92132132   -1.30766596
 H                  7.47035056    1.89702532   -1.53701096
 C                 -0.64793744   -3.04866968   -0.59509396
 C                 -5.66719544   -1.19239768   -1.23993096
 C                  0.63446856    2.62647732   -0.59506596
 C                 -3.39498944   -2.10900768   -1.38701396
 H                 -2.76308144   -2.95723068   -1.59738596
 C                 -4.04067744    2.65422632   -0.43164996
 H                 -3.58713344    3.62219432   -0.25120396
 C                 -7.06580044   -1.34360768   -1.30758296
 H                 -7.48376544   -2.31932768   -1.53687896
 C                  7.89727656   -0.17032768   -1.08596396
 H                  8.97295756   -0.03707868   -1.13791896
 C                 -5.40835044    2.48452732   -0.47215796
 H                 -6.06313544    3.33557232   -0.31308796
 C                  1.19132356    3.07285032    0.61237504
 H                  1.43075056    2.35253132    1.38925504
 C                 -5.98520444    1.20653832   -0.73585396
 C                 -4.75804044   -2.26777068   -1.48246496
 H                 -5.16132144   -3.23842268   -1.75565596
 C                 -1.20495544   -3.49503768    0.61227204
 H                 -1.44447744   -2.77471768    1.38912204
 C                 -0.33428944   -3.98126668   -1.59421096
 H                  0.10494656   -3.63898068   -2.52632896
 C                 -7.38309444    1.00710232   -0.80569496
 H                 -8.04551744    1.85163832   -0.64052696
 C                 -1.46487044   -4.85334768    0.80924704
 H                 -1.90033044   -5.18805568    1.74603204
 C                 -1.16705344   -5.77762768   -0.19748196
 H                 -1.37357744   -6.83295368   -0.04661296
 C                  1.45120356    4.43116132    0.80938404
 H                  1.88654356    4.76587132    1.74622404
 C                  0.32092856    3.55907532   -1.59421596
 H                 -0.11819244    3.21678732   -2.52638696
 C                 -7.91071344   -0.25195768   -1.08592496
 H                 -8.98639244   -0.38522368   -1.13786596
 C                 -0.59829944   -5.33868768   -1.39838196
 H                 -0.36076744   -6.05187768   -2.18204296
 C                  1.15351056    5.35543932   -0.19738296
 H                  1.36000956    6.41076732   -0.04648696
 C                  0.58490756    4.91649632   -1.39835396
 H                  0.34746656    5.62968632   -2.18204196
 O                 13.42506337   -1.00304612    2.99933450
 O                  9.42862892    2.41022752    1.58411692
 C                 15.15412902    0.44270585    2.20548606
 C                 10.07088952    0.15344618    2.22738538
 C                 17.48778385   -0.24057501    2.66073265
 C                 12.45449115   -0.17603815    2.50668581
 C                 14.73765192   -0.70477907    2.89998105
 C                 17.01808435    1.77900439    1.31507549
 C                 12.79070929    1.07857827    1.91130190
 C                  8.11619988    2.10842468    1.67451976
 C                  8.67699689   -0.23544861    2.17963845
 C                  7.70741047    0.79053965    1.93637609
 C                 11.15454530   -0.65833991    2.66271488
 C                 11.70408665    1.95607398    1.64281124
 C                 16.55474217    0.66033210    2.06514403
 C                 10.40380704    1.48116166    1.81761145
 C                 16.99360136   -1.36929081    3.37999320
 H                 17.70123460   -2.05593159    3.83398126
 C                 16.04303192    2.62580896    0.70351736
 H                 16.38481020    3.45397036    0.08969962
 C                 14.69229600    2.42024211    0.86313748
 H                 14.00852807    3.08701357    0.36221777
 C                 15.63989389   -1.60546354    3.49253965
 H                 15.24932451   -2.46857631    4.01952832
 C                 14.19001868    1.34733872    1.65406763
 C                 18.87012759    0.01450327    2.50970437
 H                 19.58484347   -0.66333745    2.96691138
 C                 18.40433679    1.99018257    1.18375891
 H                 18.75969936    2.84014377    0.60879463
 C                 10.97673674   -1.95943323    3.37343929
 C                  5.85567016   -0.81654209    2.13934515
 C                 11.87568446    3.39451842    1.28084443
 C                  8.18632261   -1.56555481    2.31757690
 H                  8.87705050   -2.38650765    2.42701994
 C                  7.20713394    3.16032061    1.46591822
 H                  7.59173626    4.15567992    1.27469615
 C                  4.47165340   -1.07732036    2.14477735
 H                  4.12387102   -2.09533733    2.29306686
 C                 19.31673548    1.11622257    1.78244879
 H                 20.38177639    1.29442035    1.67531501
 C                  5.85476672    2.89444693    1.50309584
 H                  5.14187390    3.69765689    1.34510260
 C                 12.38136436    4.28921562    2.23533638
 H                 12.65568124    3.92182078    3.21996756
 C                  5.36930281    1.57246829    1.73167686
 C                  6.83874008   -1.84109490    2.29958786
 C                 10.43104140   -1.96937514    4.66547794
 H                 10.13098787   -1.03271429    5.12630542
 C                 11.36863628   -3.16944065    2.78297860
 H                 11.79926457   -3.16329006    1.78625728
 C                  3.98926801    1.26618594    1.75274782
 H                  3.26909107    2.06506764    1.60288474
 C                 10.25954164   -3.17542028    5.34914740
 H                  9.83209539   -3.17257065    6.34739716
 C                 10.63521610   -4.38158193    4.74870212
 H                 10.49743221   -5.31971554    5.27789727
 C                 12.54632706    5.63961122    1.91819605
 H                 12.94273231    6.32323322    2.66300791
 C                 11.51687077    3.87238855    0.01228621
 H                 11.11712444    3.18318661   -0.72536862
 C                  3.55192574   -0.04091746    1.95855162
 C                 11.19301062   -4.37536087    3.46529383
 H                 11.49071338   -5.30803709    2.99553419
 C                 12.20400596    6.10805413    0.64545561
 H                 12.33678462    7.15675164    0.39699642
 C                 11.68600128    5.22181843   -0.30563278
 H                 11.41425587    5.58023943   -1.29400209
 C                  6.30924102    0.51871757    1.93916702
 H                  6.51089905   -2.85431956    2.40349187
 H                  2.50344452   -0.25417850    1.96888928

 1 6 1.0 7 1.0
 2 10 1.0 16 1.0
 3 7 1.5 15 1.5 26 1.5
 4 11 1.0 13 1.5 16 1.5
 5 15 1.5 17 1.5 27 1.5
 6 9 1.5 13 1.5
 7 23 1.5
 8 15 1.5 19 1.5 29 1.5
 9 14 1.5 26 1.0
 10 12 1.5 36 1.5
 11 12 1.5 34 1.5
 12 25 1.5
 13 31 1.0
 14 16 1.5 33 1.0
 15
 16
 17 18 1.0 23 2.0
 18
 19 20 1.0 21 2.0
 20
 21 22 1.0 26 1.5
 22
 23 24 1.0
 24
 25 32 1.5 46 1.5
 26
 27 28 1.0 40 1.5
 28
 29 30 1.0 40 1.5
 30
 31 49 1.5 51 1.5
 32 38 1.5 47 1.5
 33 44 1.5 61 1.5
 34 35 1.0 47 2.0
 35
 36 37 1.0 42 2.0
 37
 38 39 1.0 63 1.5
 39
 40 41 1.0
 41
 42 43 1.0 46 1.5
 43
 44 45 1.0 59 1.5
 45
 46 53 1.5
 47 48 1.0
 48
 49 50 1.0 55 1.5
 50
 51 52 1.0 65 1.5
 52
 53 54 1.0 63 1.5
 54
 55 56 1.0 57 1.5
 56
 57 58 1.0 65 1.5
 58
 59 60 1.0 67 1.5
 60
 61 62 1.0 69 1.5
 62
 63 64 1.0
 64
 65 66 1.0
 66
 67 68 1.0 69 1.5
 68
 69 70 1.0
 70
 71 76 1.0 77 1.0
 72 80 1.0 86 1.0
 73 77 1.5 85 1.5 95 1.5
 74 81 1.0 83 1.5 86 1.5
 75 85 1.5 87 1.5 96 1.5
 76 79 1.5 83 1.5
 77 93 1.5
 78 85 1.5 89 1.5 98 1.5
 79 84 1.5 95 1.0
 80 82 1.5 105 1.5
 81 82 1.5 103 1.5
 82 140 1.5
 83 100 1.0
 84 86 1.5 102 1.0
 85
 86
 87 88 1.0 93 2.0
 88
 89 90 1.0 91 2.0
 90
 91 92 1.0 95 1.5
 92
 93 94 1.0
 94
 95
 96 97 1.0 109 1.5
 97
 98 99 1.0 109 1.5
 99
 100 118 1.5 120 1.5
 101 107 1.5 116 1.5 140 1.5
 102 113 1.5 130 1.5
 103 104 1.0 116 2.0
 104
 105 106 1.0 111 2.0
 106
 107 108 1.0 132 1.5
 108
 109 110 1.0
 110
 111 112 1.0 115 1.5
 112
 113 114 1.0 128 1.5
 114
 115 122 1.5 140 1.5
 116 117 1.0
 117
 118 119 1.0 124 1.5
 119
 120 121 1.0 134 1.5
 121
 122 123 1.0 132 1.5
 123
 124 125 1.0 126 1.5
 125
 126 127 1.0 134 1.5
 127
 128 129 1.0 136 1.5
 129
 130 131 1.0 138 1.5
 131
 132 133 1.0
 133
 134 135 1.0
 135
 136 137 1.0 138 1.5
 137
 138 139 1.0
 139
 140



















