%chk=/oasis/projects/nsf/lhu120/cmw414/pent_y_stack/5_0A/dimer/dimer.chk
%nprocshared=24
%mem=110GB
#p b3lyp/6-311g(d,p) nosymm pop=full iop(3/33=1) punch=mo

c47

0 1
 C                 -6.68525925  -11.12517313    3.19229983
 C                 -6.65725925  -10.26917313    2.13629983
 C                 -6.03625925  -10.58717313    0.90129983
 C                 -6.02125925   -9.68817313   -0.18370017
 C                 -5.36625925  -10.02117313   -1.40170017
 C                 -5.31725925   -9.15717313   -2.48370017
 C                 -4.76925925  -11.36517313   -1.53570017
 C                 -4.88425925  -12.20917313   -0.47770017
 C                 -5.40525925  -11.90517313    0.76729983
 C                 -5.53125925  -12.77417313    1.85829983
 C                 -6.04325925  -12.45717313    3.06329983
 H                 -7.17525925  -10.80617313    4.25929983
 H                 -7.06625925   -9.24517313    2.22929983
 H                 -6.45525925   -8.67517313   -0.04770017
 H                 -5.78425925   -8.13917313   -2.33870017
 H                 -4.42625925  -13.22017313   -0.56970017
 H                 -5.07425925  -13.78017313    1.77929983
 H                 -6.05425925  -13.13617313    3.94029983
 C                 -4.71725925   -9.47617313   -3.72170017
 C                 -4.16925925  -11.68417313   -2.77370017
 C                 -4.11925925  -10.82117313   -3.85570017
 C                 -4.60225925   -8.63317313   -4.77970017
 H                 -3.70125925  -12.70317313   -2.91870017
 C                 -3.46525925  -11.15417313   -5.07370017
 C                 -4.08025925   -8.93717313   -6.02470017
 H                 -5.06025925   -7.62217313   -4.68770017
 C                 -3.45025925  -10.25517313   -6.15870017
 H                 -3.03125925  -12.16617313   -5.20970017
 C                 -3.95525925   -8.06817313   -7.11570017
 C                 -2.82925925  -10.57217313   -7.39370017
 C                 -3.44325925   -8.38517313   -8.32070017
 H                 -4.41225925   -7.06217313   -7.03670017
 C                 -2.80125925   -9.71717313   -8.44970017
 H                 -2.42025925  -11.59717313   -7.48670017
 H                 -3.43125925   -7.70617313   -9.19770017
 H                 -2.31125925  -10.03617313   -9.51670017
 C                 -5.55955519   -5.28557798    4.80563065
 C                 -5.53155519   -4.42957798    3.74963065
 C                 -4.91055519   -4.74757798    2.51463065
 C                 -4.89555519   -3.84857798    1.42963065
 C                 -4.24055519   -4.18157798    0.21163065
 C                 -4.19155519   -3.31757798   -0.87036935
 C                 -3.64355519   -5.52557798    0.07763065
 C                 -3.75855519   -6.36957798    1.13563065
 C                 -4.27955519   -6.06557798    2.38063065
 C                 -4.40555519   -6.93457798    3.47163065
 C                 -4.91755519   -6.61757798    4.67663065
 H                 -6.04955519   -4.96657798    5.87263065
 H                 -5.94055519   -3.40557798    3.84263065
 H                 -5.32955519   -2.83557798    1.56563065
 H                 -4.65855519   -2.29957798   -0.72536935
 H                 -3.30055519   -7.38057798    1.04363065
 H                 -3.94855519   -7.94057798    3.39263065
 H                 -4.92855519   -7.29657798    5.55363065
 C                 -3.59155519   -3.63657798   -2.10836935
 C                 -3.04355519   -5.84457798   -1.16036935
 C                 -2.99355519   -4.98157798   -2.24236935
 C                 -3.47655519   -2.79357798   -3.16636935
 H                 -2.57555519   -6.86357798   -1.30536935
 C                 -2.33955519   -5.31457798   -3.46036935
 C                 -2.95455519   -3.09757798   -4.41136935
 H                 -3.93455519   -1.78257798   -3.07436935
 C                 -2.32455519   -4.41557798   -4.54536935
 H                 -1.90555519   -6.32657798   -3.59636935
 C                 -2.82955519   -2.22857798   -5.50236935
 C                 -1.70355519   -4.73257798   -5.78036935
 C                 -2.31755519   -2.54557798   -6.70736935
 H                 -3.28655519   -1.22257798   -5.42336935
 C                 -1.67555519   -3.87757798   -6.83636935
 H                 -1.29455519   -5.75757798   -5.87336935
 H                 -2.30555519   -1.86657798   -7.58436935
 H                 -1.18555519   -4.19657798   -7.90336935

 1 2 2.0 11 1.0 12 1.0
 2 3 1.5 13 1.0
 3 4 1.5 9 1.0
 4 5 1.5 14 1.0
 5 6 2.0 7 1.0
 6 15 1.0 19 1.5
 7 8 2.0 20 1.5
 8 9 2.0 16 1.0
 9 10 1.5
 10 11 2.0 17 1.0
 11 18 1.0
 12
 13
 14
 15
 16
 17
 18
 19 21 1.0 22 2.0
 20 21 2.0 23 1.0
 21 24 1.5
 22 25 2.0 26 1.0
 23
 24 27 1.5 28 1.0
 25 27 1.0 29 1.5
 26
 27 30 1.5
 28
 29 31 2.0 32 1.0
 30 33 2.0 34 1.0
 31 33 1.0 35 1.0
 32
 33 36 1.0
 34
 35
 36
 37 38 2.0 47 1.0 48 1.0
 38 39 1.5 49 1.0
 39 40 1.5 45 1.0
 40 41 1.5 50 1.0
 41 42 2.0 43 1.0
 42 51 1.0 55 1.5
 43 44 2.0 56 1.5
 44 45 2.0 52 1.0
 45 46 1.5
 46 47 2.0 53 1.0
 47 54 1.0
 48
 49
 50
 51
 52
 53
 54
 55 57 1.0 58 2.0
 56 57 2.0 59 1.0
 57 60 1.5
 58 61 2.0 62 1.0
 59
 60 63 1.5 64 1.0
 61 63 1.0 65 1.5
 62
 63 66 1.5
 64
 65 67 2.0 68 1.0
 66 69 2.0 70 1.0
 67 69 1.0 71 1.0
 68
 69 72 1.0
 70
 71
 72


