%chk=/oasis/projects/nsf/lhu120/cmw414/pent_slip_x/0_4A/dimer/dimer.chk
%nprocshared=24
%mem=110GB
#p b3lyp/6-311g(d,p) nosymm pop=full iop(3/33=1) punch=mo

c47

0 1
 C                 -8.60614313   -6.48930844    3.26835814
 C                 -8.57814313   -5.63330844    2.21235814
 C                 -7.95714313   -5.95130844    0.97735814
 C                 -7.94214313   -5.05230844   -0.10764186
 C                 -7.28714313   -5.38530844   -1.32564186
 C                 -7.23814313   -4.52130844   -2.40764186
 C                 -6.69014313   -6.72930844   -1.45964186
 C                 -6.80514313   -7.57330844   -0.40164186
 C                 -7.32614313   -7.26930844    0.84335814
 C                 -7.45214313   -8.13830844    1.93435814
 C                 -7.96414313   -7.82130844    3.13935814
 H                 -9.09614313   -6.17030844    4.33535814
 H                 -8.98714313   -4.60930844    2.30535814
 H                 -8.37614313   -4.03930844    0.02835814
 H                 -7.70514313   -3.50330844   -2.26264186
 H                 -6.34714313   -8.58430844   -0.49364186
 H                 -6.99514313   -9.14430844    1.85535814
 H                 -7.97514313   -8.50030844    4.01635814
 C                 -6.63814313   -4.84030844   -3.64564186
 C                 -6.09014313   -7.04830844   -2.69764186
 C                 -6.04014313   -6.18530844   -3.77964186
 C                 -6.52314313   -3.99730844   -4.70364186
 H                 -5.62214313   -8.06730844   -2.84264186
 C                 -5.38614313   -6.51830844   -4.99764186
 C                 -6.00114313   -4.30130844   -5.94864186
 H                 -6.98114313   -2.98630844   -4.61164186
 C                 -5.37114313   -5.61930844   -6.08264186
 H                 -4.95214313   -7.53030844   -5.13364186
 C                 -5.87614313   -3.43230844   -7.03964186
 C                 -4.75014313   -5.93630844   -7.31764186
 C                 -5.36414313   -3.74930844   -8.24464186
 H                 -6.33314313   -2.42630844   -6.96064186
 C                 -4.72214313   -5.08130844   -8.37364186
 H                 -4.34114313   -6.96130844   -7.41064186
 H                 -5.35214313   -3.07030844   -9.12164186
 H                 -4.23214313   -5.40030844   -9.44064186
 C                 -5.55955519   -5.28557798    4.80563065
 C                 -5.53155519   -4.42957798    3.74963065
 C                 -4.91055519   -4.74757798    2.51463065
 C                 -4.89555519   -3.84857798    1.42963065
 C                 -4.24055519   -4.18157798    0.21163065
 C                 -4.19155519   -3.31757798   -0.87036935
 C                 -3.64355519   -5.52557798    0.07763065
 C                 -3.75855519   -6.36957798    1.13563065
 C                 -4.27955519   -6.06557798    2.38063065
 C                 -4.40555519   -6.93457798    3.47163065
 C                 -4.91755519   -6.61757798    4.67663065
 H                 -6.04955519   -4.96657798    5.87263065
 H                 -5.94055519   -3.40557798    3.84263065
 H                 -5.32955519   -2.83557798    1.56563065
 H                 -4.65855519   -2.29957798   -0.72536935
 H                 -3.30055519   -7.38057798    1.04363065
 H                 -3.94855519   -7.94057798    3.39263065
 H                 -4.92855519   -7.29657798    5.55363065
 C                 -3.59155519   -3.63657798   -2.10836935
 C                 -3.04355519   -5.84457798   -1.16036935
 C                 -2.99355519   -4.98157798   -2.24236935
 C                 -3.47655519   -2.79357798   -3.16636935
 H                 -2.57555519   -6.86357798   -1.30536935
 C                 -2.33955519   -5.31457798   -3.46036935
 C                 -2.95455519   -3.09757798   -4.41136935
 H                 -3.93455519   -1.78257798   -3.07436935
 C                 -2.32455519   -4.41557798   -4.54536935
 H                 -1.90555519   -6.32657798   -3.59636935
 C                 -2.82955519   -2.22857798   -5.50236935
 C                 -1.70355519   -4.73257798   -5.78036935
 C                 -2.31755519   -2.54557798   -6.70736935
 H                 -3.28655519   -1.22257798   -5.42336935
 C                 -1.67555519   -3.87757798   -6.83636935
 H                 -1.29455519   -5.75757798   -5.87336935
 H                 -2.30555519   -1.86657798   -7.58436935
 H                 -1.18555519   -4.19657798   -7.90336935

 1 2 2.0 11 1.0 12 1.0
 2 3 1.5 13 1.0
 3 4 1.5 9 1.0
 4 5 1.5 14 1.0
 5 6 2.0 7 1.0
 6 15 1.0 19 1.5
 7 8 2.0 20 1.5
 8 9 2.0 16 1.0
 9 10 1.5
 10 11 2.0 17 1.0
 11 18 1.0
 12
 13
 14
 15
 16
 17
 18
 19 21 1.0 22 2.0
 20 21 2.0 23 1.0
 21 24 1.5
 22 25 2.0 26 1.0
 23
 24 27 1.5 28 1.0
 25 27 1.0 29 1.5
 26
 27 30 1.5
 28
 29 31 2.0 32 1.0
 30 33 2.0 34 1.0
 31 33 1.0 35 1.0
 32
 33 36 1.0
 34
 35
 36
 37 38 2.0 47 1.0 48 1.0
 38 39 1.5 49 1.0
 39 40 1.5 45 1.0
 40 41 1.5 50 1.0
 41 42 2.0 43 1.0
 42 51 1.0 55 1.5
 43 44 2.0 56 1.5
 44 45 2.0 52 1.0
 45 46 1.5
 46 47 2.0 53 1.0
 47 54 1.0
 48
 49
 50
 51
 52
 53
 54
 55 57 1.0 58 2.0
 56 57 2.0 59 1.0
 57 60 1.5
 58 61 2.0 62 1.0
 59
 60 63 1.5 64 1.0
 61 63 1.0 65 1.5
 62
 63 66 1.5
 64
 65 67 2.0 68 1.0
 66 69 2.0 70 1.0
 67 69 1.0 71 1.0
 68
 69 72 1.0
 70
 71
 72

