%chk=/oasis/projects/nsf/lhu120/cmw414/pent_slip_x/n_0_1A/dimer/dimer.chk
%nprocshared=24
%mem=110GB
#p b3lyp/6-311g(d,p) nosymm pop=full iop(3/33=1) punch=mo

c47

0 1
 C                 -8.73933492   -6.59895418    3.73765310
 C                 -8.71133492   -5.74295418    2.68165310
 C                 -8.09033492   -6.06095418    1.44665310
 C                 -8.07533492   -5.16195418    0.36165310
 C                 -7.42033492   -5.49495418   -0.85634690
 C                 -7.37133492   -4.63095418   -1.93834690
 C                 -6.82333492   -6.83895418   -0.99034690
 C                 -6.93833492   -7.68295418    0.06765310
 C                 -7.45933492   -7.37895418    1.31265310
 C                 -7.58533492   -8.24795418    2.40365310
 C                 -8.09733492   -7.93095418    3.60865310
 H                 -9.22933492   -6.27995418    4.80465310
 H                 -9.12033492   -4.71895418    2.77465310
 H                 -8.50933492   -4.14895418    0.49765310
 H                 -7.83833492   -3.61295418   -1.79334690
 H                 -6.48033492   -8.69395418   -0.02434690
 H                 -7.12833492   -9.25395418    2.32465310
 H                 -8.10833492   -8.60995418    4.48565310
 C                 -6.77133492   -4.94995418   -3.17634690
 C                 -6.22333492   -7.15795418   -2.22834690
 C                 -6.17333492   -6.29495418   -3.31034690
 C                 -6.65633492   -4.10695418   -4.23434690
 H                 -5.75533492   -8.17695418   -2.37334690
 C                 -5.51933492   -6.62795418   -4.52834690
 C                 -6.13433492   -4.41095418   -5.47934690
 H                 -7.11433492   -3.09595418   -4.14234690
 C                 -5.50433492   -5.72895418   -5.61334690
 H                 -5.08533492   -7.63995418   -4.66434690
 C                 -6.00933492   -3.54195418   -6.57034690
 C                 -4.88333492   -6.04595418   -6.84834690
 C                 -5.49733492   -3.85895418   -7.77534690
 H                 -6.46633492   -2.53595418   -6.49134690
 C                 -4.85533492   -5.19095418   -7.90434690
 H                 -4.47433492   -7.07095418   -6.94134690
 H                 -5.48533492   -3.17995418   -8.65234690
 H                 -4.36533492   -5.50995418   -8.97134690
 C                 -5.55955519   -5.28557798    4.80563065
 C                 -5.53155519   -4.42957798    3.74963065
 C                 -4.91055519   -4.74757798    2.51463065
 C                 -4.89555519   -3.84857798    1.42963065
 C                 -4.24055519   -4.18157798    0.21163065
 C                 -4.19155519   -3.31757798   -0.87036935
 C                 -3.64355519   -5.52557798    0.07763065
 C                 -3.75855519   -6.36957798    1.13563065
 C                 -4.27955519   -6.06557798    2.38063065
 C                 -4.40555519   -6.93457798    3.47163065
 C                 -4.91755519   -6.61757798    4.67663065
 H                 -6.04955519   -4.96657798    5.87263065
 H                 -5.94055519   -3.40557798    3.84263065
 H                 -5.32955519   -2.83557798    1.56563065
 H                 -4.65855519   -2.29957798   -0.72536935
 H                 -3.30055519   -7.38057798    1.04363065
 H                 -3.94855519   -7.94057798    3.39263065
 H                 -4.92855519   -7.29657798    5.55363065
 C                 -3.59155519   -3.63657798   -2.10836935
 C                 -3.04355519   -5.84457798   -1.16036935
 C                 -2.99355519   -4.98157798   -2.24236935
 C                 -3.47655519   -2.79357798   -3.16636935
 H                 -2.57555519   -6.86357798   -1.30536935
 C                 -2.33955519   -5.31457798   -3.46036935
 C                 -2.95455519   -3.09757798   -4.41136935
 H                 -3.93455519   -1.78257798   -3.07436935
 C                 -2.32455519   -4.41557798   -4.54536935
 H                 -1.90555519   -6.32657798   -3.59636935
 C                 -2.82955519   -2.22857798   -5.50236935
 C                 -1.70355519   -4.73257798   -5.78036935
 C                 -2.31755519   -2.54557798   -6.70736935
 H                 -3.28655519   -1.22257798   -5.42336935
 C                 -1.67555519   -3.87757798   -6.83636935
 H                 -1.29455519   -5.75757798   -5.87336935
 H                 -2.30555519   -1.86657798   -7.58436935
 H                 -1.18555519   -4.19657798   -7.90336935

 1 2 2.0 11 1.0 12 1.0
 2 3 1.5 13 1.0
 3 4 1.5 9 1.0
 4 5 1.5 14 1.0
 5 6 2.0 7 1.0
 6 15 1.0 19 1.5
 7 8 2.0 20 1.5
 8 9 2.0 16 1.0
 9 10 1.5
 10 11 2.0 17 1.0
 11 18 1.0
 12
 13
 14
 15
 16
 17
 18
 19 21 1.0 22 2.0
 20 21 2.0 23 1.0
 21 24 1.5
 22 25 2.0 26 1.0
 23
 24 27 1.5 28 1.0
 25 27 1.0 29 1.5
 26
 27 30 1.5
 28
 29 31 2.0 32 1.0
 30 33 2.0 34 1.0
 31 33 1.0 35 1.0
 32
 33 36 1.0
 34
 35
 36
 37 38 2.0 47 1.0 48 1.0
 38 39 1.5 49 1.0
 39 40 1.5 45 1.0
 40 41 1.5 50 1.0
 41 42 2.0 43 1.0
 42 51 1.0 55 1.5
 43 44 2.0 56 1.5
 44 45 2.0 52 1.0
 45 46 1.5
 46 47 2.0 53 1.0
 47 54 1.0
 48
 49
 50
 51
 52
 53
 54
 55 57 1.0 58 2.0
 56 57 2.0 59 1.0
 57 60 1.5
 58 61 2.0 62 1.0
 59
 60 63 1.5 64 1.0
 61 63 1.0 65 1.5
 62
 63 66 1.5
 64
 65 67 2.0 68 1.0
 66 69 2.0 70 1.0
 67 69 1.0 71 1.0
 68
 69 72 1.0
 70
 71
 72

