%chk=/oasis/projects/nsf/lhu120/cmw414/rc_slip_x_new/0_4A/dimer/dimer.chk
%mem=110GB
#p b3lyp/6-311g(d,p) nosymm pop=full iop(3/33=1) punch=mo

c47

2 1
 O                  1.86343256   -2.18814168   -0.63312396
 O                 -1.87688744    1.76594132   -0.63317696
 C                  3.69461456   -0.67140268   -0.87047896
 C                 -1.39648944   -0.60712468   -0.87219696
 C                  5.97175156   -1.62878468   -0.73581696
 C                  0.95630456   -1.17504168   -0.77241696
 C                  3.19421256   -1.96292068   -0.63793396
 C                  5.65376956    0.77013232   -1.23999596
 C                  1.38305156    0.18492932   -0.87218096
 C                 -3.20766744    1.54071032   -0.63799196
 C                 -2.81321944   -0.85705968   -1.03609996
 C                 -3.70805744    0.24918032   -0.87049696
 C                 -0.37497644   -1.59266368   -0.78251796
 C                  0.36153156    1.17047132   -0.78252296
 C                  5.10807156   -0.51188368   -0.94441996
 C                 -0.96975044    0.75284632   -0.77244796
 C                  5.39488456   -2.90675768   -0.47207296
 H                  6.04966056   -3.75780568   -0.31297796
 C                  4.74462556    1.84550032   -1.48258496
 H                  5.14791656    2.81613132   -1.75583896
 C                  3.38157356    1.68676032   -1.38711396
 H                  2.74968056    2.53497832   -1.59754396
 C                  4.02720956   -3.07643968   -0.43155996
 H                  3.57365556   -4.04439768   -0.25108496
 C                 -5.12151244    0.08963932   -0.94441896
 C                  2.79978656    0.43484332   -1.03611196
 C                  7.36964356   -1.42936968   -0.80567596
 H                  8.03205756   -2.27390668   -0.64047896
 C                  7.05237556    0.92132132   -1.30766596
 H                  7.47035056    1.89702532   -1.53701096
 C                 -0.64793744   -3.04866968   -0.59509396
 C                 -5.66719544   -1.19239768   -1.23993096
 C                  0.63446856    2.62647732   -0.59506596
 C                 -3.39498944   -2.10900768   -1.38701396
 H                 -2.76308144   -2.95723068   -1.59738596
 C                 -4.04067744    2.65422632   -0.43164996
 H                 -3.58713344    3.62219432   -0.25120396
 C                 -7.06580044   -1.34360768   -1.30758296
 H                 -7.48376544   -2.31932768   -1.53687896
 C                  7.89727656   -0.17032768   -1.08596396
 H                  8.97295756   -0.03707868   -1.13791896
 C                 -5.40835044    2.48452732   -0.47215796
 H                 -6.06313544    3.33557232   -0.31308796
 C                  1.19132356    3.07285032    0.61237504
 H                  1.43075056    2.35253132    1.38925504
 C                 -5.98520444    1.20653832   -0.73585396
 C                 -4.75804044   -2.26777068   -1.48246496
 H                 -5.16132144   -3.23842268   -1.75565596
 C                 -1.20495544   -3.49503768    0.61227204
 H                 -1.44447744   -2.77471768    1.38912204
 C                 -0.33428944   -3.98126668   -1.59421096
 H                  0.10494656   -3.63898068   -2.52632896
 C                 -7.38309444    1.00710232   -0.80569496
 H                 -8.04551744    1.85163832   -0.64052696
 C                 -1.46487044   -4.85334768    0.80924704
 H                 -1.90033044   -5.18805568    1.74603204
 C                 -1.16705344   -5.77762768   -0.19748196
 H                 -1.37357744   -6.83295368   -0.04661296
 C                  1.45120356    4.43116132    0.80938404
 H                  1.88654356    4.76587132    1.74622404
 C                  0.32092856    3.55907532   -1.59421596
 H                 -0.11819244    3.21678732   -2.52638696
 C                 -7.91071344   -0.25195768   -1.08592496
 H                 -8.98639244   -0.38522368   -1.13786596
 C                 -0.59829944   -5.33868768   -1.39838196
 H                 -0.36076744   -6.05187768   -2.18204296
 C                  1.15351056    5.35543932   -0.19738296
 H                  1.36000956    6.41076732   -0.04648696
 C                  0.58490756    4.91649632   -1.39835396
 H                  0.34746656    5.62968632   -2.18204196
 O                 12.64110984   -1.16233444    3.00597558
 O                  8.64467539    2.25093920    1.59075800
 C                 14.37017549    0.28341753    2.21212714
 C                  9.28693599   -0.00584214    2.23402646
 C                 16.70383032   -0.39986333    2.66737373
 C                 11.67053762   -0.33532647    2.51332689
 C                 13.95369839   -0.86406739    2.90662213
 C                 16.23413082    1.61971607    1.32171657
 C                 12.00675576    0.91928995    1.91794298
 C                  7.33224635    1.94913636    1.68116084
 C                  7.89304336   -0.39473693    2.18627953
 C                  6.92345694    0.63125133    1.94301717
 C                 10.37059177   -0.81762823    2.66935596
 C                 10.92013312    1.79678566    1.64945232
 C                 15.77078864    0.50104378    2.07178511
 C                  9.61985351    1.32187334    1.82425253
 C                 16.20964783   -1.52857913    3.38663428
 H                 16.91728107   -2.21521991    3.84062234
 C                 15.25907839    2.46652064    0.71015844
 H                 15.60085667    3.29468204    0.09634070
 C                 13.90834247    2.26095379    0.86977856
 H                 13.22457454    2.92772525    0.36885885
 C                 14.85594036   -1.76475186    3.49918073
 H                 14.46537098   -2.62786463    4.02616940
 C                 13.40606515    1.18805040    1.66070871
 C                 18.08617406   -0.14478505    2.51634545
 H                 18.80088994   -0.82262577    2.97355246
 C                 17.62038326    1.83089425    1.19039999
 H                 17.97574583    2.68085545    0.61543571
 C                 10.19278321   -2.11872155    3.38008037
 C                  5.07171663   -0.97583041    2.14598623
 C                 11.09173093    3.23523010    1.28748551
 C                  7.40236908   -1.72484313    2.32421798
 H                  8.09309697   -2.54579597    2.43366102
 C                  6.42318041    3.00103229    1.47255930
 H                  6.80778273    3.99639160    1.28133723
 C                  3.68769987   -1.23660868    2.15141843
 H                  3.33991749   -2.25462565    2.29970794
 C                 18.53278195    0.95693425    1.78908987
 H                 19.59782286    1.13513203    1.68195609
 C                  5.07081319    2.73515861    1.50973692
 H                  4.35792037    3.53836857    1.35174368
 C                 11.59741083    4.12992730    2.24197746
 H                 11.87172771    3.76253246    3.22660864
 C                  4.58534928    1.41317997    1.73831794
 C                  6.05478655   -2.00038322    2.30622894
 C                  9.64708787   -2.12866346    4.67211902
 H                  9.34703434   -1.19200261    5.13294650
 C                 10.58468275   -3.32872897    2.78961968
 H                 11.01531104   -3.32257838    1.79289836
 C                  3.20531448    1.10689762    1.75938890
 H                  2.48513754    1.90577932    1.60952582
 C                  9.47558811   -3.33470860    5.35578848
 H                  9.04814186   -3.33185897    6.35403824
 C                  9.85126257   -4.54087025    4.75534320
 H                  9.71347868   -5.47900386    5.28453835
 C                 11.76237353    5.48032290    1.92483713
 H                 12.15877878    6.16394490    2.66964899
 C                 10.73291724    3.71310023    0.01892729
 H                 10.33317091    3.02389829   -0.71872754
 C                  2.76797221   -0.20020578    1.96519270
 C                 10.40905709   -4.53464919    3.47193491
 H                 10.70675985   -5.46732541    3.00217527
 C                 11.42005243    5.94876581    0.65209669
 H                 11.55283109    6.99746332    0.40363750
 C                 10.90204775    5.06253011   -0.29899170
 H                 10.63030234    5.42095111   -1.28736101
 C                  5.52528749    0.35942925    1.94580810
 H                  5.72694552   -3.01360788    2.41013295
 H                  1.71949099   -0.41346682    1.97553036

 1 6 1.0 7 1.0
 2 10 1.0 16 1.0
 3 7 1.5 15 1.5 26 1.5
 4 11 1.0 13 1.5 16 1.5
 5 15 1.5 17 1.5 27 1.5
 6 9 1.5 13 1.5
 7 23 1.5
 8 15 1.5 19 1.5 29 1.5
 9 14 1.5 26 1.0
 10 12 1.5 36 1.5
 11 12 1.5 34 1.5
 12 25 1.5
 13 31 1.0
 14 16 1.5 33 1.0
 15
 16
 17 18 1.0 23 2.0
 18
 19 20 1.0 21 2.0
 20
 21 22 1.0 26 1.5
 22
 23 24 1.0
 24
 25 32 1.5 46 1.5
 26
 27 28 1.0 40 1.5
 28
 29 30 1.0 40 1.5
 30
 31 49 1.5 51 1.5
 32 38 1.5 47 1.5
 33 44 1.5 61 1.5
 34 35 1.0 47 2.0
 35
 36 37 1.0 42 2.0
 37
 38 39 1.0 63 1.5
 39
 40 41 1.0
 41
 42 43 1.0 46 1.5
 43
 44 45 1.0 59 1.5
 45
 46 53 1.5
 47 48 1.0
 48
 49 50 1.0 55 1.5
 50
 51 52 1.0 65 1.5
 52
 53 54 1.0 63 1.5
 54
 55 56 1.0 57 1.5
 56
 57 58 1.0 65 1.5
 58
 59 60 1.0 67 1.5
 60
 61 62 1.0 69 1.5
 62
 63 64 1.0
 64
 65 66 1.0
 66
 67 68 1.0 69 1.5
 68
 69 70 1.0
 70
 71 76 1.0 77 1.0
 72 80 1.0 86 1.0
 73 77 1.5 85 1.5 95 1.5
 74 81 1.0 83 1.5 86 1.5
 75 85 1.5 87 1.5 96 1.5
 76 79 1.5 83 1.5
 77 93 1.5
 78 85 1.5 89 1.5 98 1.5
 79 84 1.5 95 1.0
 80 82 1.5 105 1.5
 81 82 1.5 103 1.5
 82 140 1.5
 83 100 1.0
 84 86 1.5 102 1.0
 85
 86
 87 88 1.0 93 2.0
 88
 89 90 1.0 91 2.0
 90
 91 92 1.0 95 1.5
 92
 93 94 1.0
 94
 95
 96 97 1.0 109 1.5
 97
 98 99 1.0 109 1.5
 99
 100 118 1.5 120 1.5
 101 107 1.5 116 1.5 140 1.5
 102 113 1.5 130 1.5
 103 104 1.0 116 2.0
 104
 105 106 1.0 111 2.0
 106
 107 108 1.0 132 1.5
 108
 109 110 1.0
 110
 111 112 1.0 115 1.5
 112
 113 114 1.0 128 1.5
 114
 115 122 1.5 140 1.5
 116 117 1.0
 117
 118 119 1.0 124 1.5
 119
 120 121 1.0 134 1.5
 121
 122 123 1.0 132 1.5
 123
 124 125 1.0 126 1.5
 125
 126 127 1.0 134 1.5
 127
 128 129 1.0 136 1.5
 129
 130 131 1.0 138 1.5
 131
 132 133 1.0
 133
 134 135 1.0
 135
 136 137 1.0 138 1.5
 137
 138 139 1.0
 139
 140











