%chk=/oasis/projects/nsf/lhu120/cmw414/pent_slip_x/0_8A/dimer/dimer.chk
%nprocshared=24
%mem=110GB
#p b3lyp/6-311g(d,p) nosymm pop=full iop(3/33=1) punch=mo

c47

0 1
 C                 -8.49958973   -6.40159183    2.89292217
 C                 -8.47158973   -5.54559183    1.83692217
 C                 -7.85058973   -5.86359183    0.60192217
 C                 -7.83558973   -4.96459183   -0.48307783
 C                 -7.18058973   -5.29759183   -1.70107783
 C                 -7.13158973   -4.43359183   -2.78307783
 C                 -6.58358973   -6.64159183   -1.83507783
 C                 -6.69858973   -7.48559183   -0.77707783
 C                 -7.21958973   -7.18159183    0.46792217
 C                 -7.34558973   -8.05059183    1.55892217
 C                 -7.85758973   -7.73359183    2.76392217
 H                 -8.98958973   -6.08259183    3.95992217
 H                 -8.88058973   -4.52159183    1.92992217
 H                 -8.26958973   -3.95159183   -0.34707783
 H                 -7.59858973   -3.41559183   -2.63807783
 H                 -6.24058973   -8.49659183   -0.86907783
 H                 -6.88858973   -9.05659183    1.47992217
 H                 -7.86858973   -8.41259183    3.64092217
 C                 -6.53158973   -4.75259183   -4.02107783
 C                 -5.98358973   -6.96059183   -3.07307783
 C                 -5.93358973   -6.09759183   -4.15507783
 C                 -6.41658973   -3.90959183   -5.07907783
 H                 -5.51558973   -7.97959183   -3.21807783
 C                 -5.27958973   -6.43059183   -5.37307783
 C                 -5.89458973   -4.21359183   -6.32407783
 H                 -6.87458973   -2.89859183   -4.98707783
 C                 -5.26458973   -5.53159183   -6.45807783
 H                 -4.84558973   -7.44259183   -5.50907783
 C                 -5.76958973   -3.34459183   -7.41507783
 C                 -4.64358973   -5.84859183   -7.69307783
 C                 -5.25758973   -3.66159183   -8.62007783
 H                 -6.22658973   -2.33859183   -7.33607783
 C                 -4.61558973   -4.99359183   -8.74907783
 H                 -4.23458973   -6.87359183   -7.78607783
 H                 -5.24558973   -2.98259183   -9.49707783
 H                 -4.12558973   -5.31259183   -9.81607783
 C                 -5.55955519   -5.28557798    4.80563065
 C                 -5.53155519   -4.42957798    3.74963065
 C                 -4.91055519   -4.74757798    2.51463065
 C                 -4.89555519   -3.84857798    1.42963065
 C                 -4.24055519   -4.18157798    0.21163065
 C                 -4.19155519   -3.31757798   -0.87036935
 C                 -3.64355519   -5.52557798    0.07763065
 C                 -3.75855519   -6.36957798    1.13563065
 C                 -4.27955519   -6.06557798    2.38063065
 C                 -4.40555519   -6.93457798    3.47163065
 C                 -4.91755519   -6.61757798    4.67663065
 H                 -6.04955519   -4.96657798    5.87263065
 H                 -5.94055519   -3.40557798    3.84263065
 H                 -5.32955519   -2.83557798    1.56563065
 H                 -4.65855519   -2.29957798   -0.72536935
 H                 -3.30055519   -7.38057798    1.04363065
 H                 -3.94855519   -7.94057798    3.39263065
 H                 -4.92855519   -7.29657798    5.55363065
 C                 -3.59155519   -3.63657798   -2.10836935
 C                 -3.04355519   -5.84457798   -1.16036935
 C                 -2.99355519   -4.98157798   -2.24236935
 C                 -3.47655519   -2.79357798   -3.16636935
 H                 -2.57555519   -6.86357798   -1.30536935
 C                 -2.33955519   -5.31457798   -3.46036935
 C                 -2.95455519   -3.09757798   -4.41136935
 H                 -3.93455519   -1.78257798   -3.07436935
 C                 -2.32455519   -4.41557798   -4.54536935
 H                 -1.90555519   -6.32657798   -3.59636935
 C                 -2.82955519   -2.22857798   -5.50236935
 C                 -1.70355519   -4.73257798   -5.78036935
 C                 -2.31755519   -2.54557798   -6.70736935
 H                 -3.28655519   -1.22257798   -5.42336935
 C                 -1.67555519   -3.87757798   -6.83636935
 H                 -1.29455519   -5.75757798   -5.87336935
 H                 -2.30555519   -1.86657798   -7.58436935
 H                 -1.18555519   -4.19657798   -7.90336935

 1 2 2.0 11 1.0 12 1.0
 2 3 1.5 13 1.0
 3 4 1.5 9 1.0
 4 5 1.5 14 1.0
 5 6 2.0 7 1.0
 6 15 1.0 19 1.5
 7 8 2.0 20 1.5
 8 9 2.0 16 1.0
 9 10 1.5
 10 11 2.0 17 1.0
 11 18 1.0
 12
 13
 14
 15
 16
 17
 18
 19 21 1.0 22 2.0
 20 21 2.0 23 1.0
 21 24 1.5
 22 25 2.0 26 1.0
 23
 24 27 1.5 28 1.0
 25 27 1.0 29 1.5
 26
 27 30 1.5
 28
 29 31 2.0 32 1.0
 30 33 2.0 34 1.0
 31 33 1.0 35 1.0
 32
 33 36 1.0
 34
 35
 36
 37 38 2.0 47 1.0 48 1.0
 38 39 1.5 49 1.0
 39 40 1.5 45 1.0
 40 41 1.5 50 1.0
 41 42 2.0 43 1.0
 42 51 1.0 55 1.5
 43 44 2.0 56 1.5
 44 45 2.0 52 1.0
 45 46 1.5
 46 47 2.0 53 1.0
 47 54 1.0
 48
 49
 50
 51
 52
 53
 54
 55 57 1.0 58 2.0
 56 57 2.0 59 1.0
 57 60 1.5
 58 61 2.0 62 1.0
 59
 60 63 1.5 64 1.0
 61 63 1.0 65 1.5
 62
 63 66 1.5
 64
 65 67 2.0 68 1.0
 66 69 2.0 70 1.0
 67 69 1.0 71 1.0
 68
 69 72 1.0
 70
 71
 72

