%chk=/oasis/projects/nsf/lhu120/cmw414/pent_y_stack/2_2A/dimer/dimer.chk
%nprocshared=24
%mem=110GB
#p b3lyp/6-311g(d,p) nosymm pop=full iop(3/33=1) punch=mo

c47

0 1
 C                 -7.81605773   -8.57407863    3.42512577
 C                 -7.78805773   -7.71807863    2.36912577
 C                 -7.16705773   -8.03607863    1.13412577
 C                 -7.15205773   -7.13707863    0.04912577
 C                 -6.49705773   -7.47007863   -1.16887423
 C                 -6.44805773   -6.60607863   -2.25087423
 C                 -5.90005773   -8.81407863   -1.30287423
 C                 -6.01505773   -9.65807863   -0.24487423
 C                 -6.53605773   -9.35407863    1.00012577
 C                 -6.66205773  -10.22307863    2.09112577
 C                 -7.17405773   -9.90607863    3.29612577
 H                 -8.30605773   -8.25507863    4.49212577
 H                 -8.19705773   -6.69407863    2.46212577
 H                 -7.58605773   -6.12407863    0.18512577
 H                 -6.91505773   -5.58807863   -2.10587423
 H                 -5.55705773  -10.66907863   -0.33687423
 H                 -6.20505773  -11.22907863    2.01212577
 H                 -7.18505773  -10.58507863    4.17312577
 C                 -5.84805773   -6.92507863   -3.48887423
 C                 -5.30005773   -9.13307863   -2.54087423
 C                 -5.25005773   -8.27007863   -3.62287423
 C                 -5.73305773   -6.08207863   -4.54687423
 H                 -4.83205773  -10.15207863   -2.68587423
 C                 -4.59605773   -8.60307863   -4.84087423
 C                 -5.21105773   -6.38607863   -5.79187423
 H                 -6.19105773   -5.07107863   -4.45487423
 C                 -4.58105773   -7.70407863   -5.92587423
 H                 -4.16205773   -9.61507863   -4.97687423
 C                 -5.08605773   -5.51707863   -6.88287423
 C                 -3.96005773   -8.02107863   -7.16087423
 C                 -4.57405773   -5.83407863   -8.08787423
 H                 -5.54305773   -4.51107863   -6.80387423
 C                 -3.93205773   -7.16607863   -8.21687423
 H                 -3.55105773   -9.04607863   -7.25387423
 H                 -4.56205773   -5.15507863   -8.96487423
 H                 -3.44205773   -7.48507863   -9.28387423
 C                 -5.55955519   -5.28557798    4.80563065
 C                 -5.53155519   -4.42957798    3.74963065
 C                 -4.91055519   -4.74757798    2.51463065
 C                 -4.89555519   -3.84857798    1.42963065
 C                 -4.24055519   -4.18157798    0.21163065
 C                 -4.19155519   -3.31757798   -0.87036935
 C                 -3.64355519   -5.52557798    0.07763065
 C                 -3.75855519   -6.36957798    1.13563065
 C                 -4.27955519   -6.06557798    2.38063065
 C                 -4.40555519   -6.93457798    3.47163065
 C                 -4.91755519   -6.61757798    4.67663065
 H                 -6.04955519   -4.96657798    5.87263065
 H                 -5.94055519   -3.40557798    3.84263065
 H                 -5.32955519   -2.83557798    1.56563065
 H                 -4.65855519   -2.29957798   -0.72536935
 H                 -3.30055519   -7.38057798    1.04363065
 H                 -3.94855519   -7.94057798    3.39263065
 H                 -4.92855519   -7.29657798    5.55363065
 C                 -3.59155519   -3.63657798   -2.10836935
 C                 -3.04355519   -5.84457798   -1.16036935
 C                 -2.99355519   -4.98157798   -2.24236935
 C                 -3.47655519   -2.79357798   -3.16636935
 H                 -2.57555519   -6.86357798   -1.30536935
 C                 -2.33955519   -5.31457798   -3.46036935
 C                 -2.95455519   -3.09757798   -4.41136935
 H                 -3.93455519   -1.78257798   -3.07436935
 C                 -2.32455519   -4.41557798   -4.54536935
 H                 -1.90555519   -6.32657798   -3.59636935
 C                 -2.82955519   -2.22857798   -5.50236935
 C                 -1.70355519   -4.73257798   -5.78036935
 C                 -2.31755519   -2.54557798   -6.70736935
 H                 -3.28655519   -1.22257798   -5.42336935
 C                 -1.67555519   -3.87757798   -6.83636935
 H                 -1.29455519   -5.75757798   -5.87336935
 H                 -2.30555519   -1.86657798   -7.58436935
 H                 -1.18555519   -4.19657798   -7.90336935

 1 2 2.0 11 1.0 12 1.0
 2 3 1.5 13 1.0
 3 4 1.5 9 1.0
 4 5 1.5 14 1.0
 5 6 2.0 7 1.0
 6 15 1.0 19 1.5
 7 8 2.0 20 1.5
 8 9 2.0 16 1.0
 9 10 1.5
 10 11 2.0 17 1.0
 11 18 1.0
 12
 13
 14
 15
 16
 17
 18
 19 21 1.0 22 2.0
 20 21 2.0 23 1.0
 21 24 1.5
 22 25 2.0 26 1.0
 23
 24 27 1.5 28 1.0
 25 27 1.0 29 1.5
 26
 27 30 1.5
 28
 29 31 2.0 32 1.0
 30 33 2.0 34 1.0
 31 33 1.0 35 1.0
 32
 33 36 1.0
 34
 35
 36
 37 38 2.0 47 1.0 48 1.0
 38 39 1.5 49 1.0
 39 40 1.5 45 1.0
 40 41 1.5 50 1.0
 41 42 2.0 43 1.0
 42 51 1.0 55 1.5
 43 44 2.0 56 1.5
 44 45 2.0 52 1.0
 45 46 1.5
 46 47 2.0 53 1.0
 47 54 1.0
 48
 49
 50
 51
 52
 53
 54
 55 57 1.0 58 2.0
 56 57 2.0 59 1.0
 57 60 1.5
 58 61 2.0 62 1.0
 59
 60 63 1.5 64 1.0
 61 63 1.0 65 1.5
 62
 63 66 1.5
 64
 65 67 2.0 68 1.0
 66 69 2.0 70 1.0
 67 69 1.0 71 1.0
 68
 69 72 1.0
 70
 71
 72


