%chk=/oasis/projects/nsf/lhu120/cmw414/pent_y_stack/1_0A/dimer/dimer.chk
%nprocshared=24
%mem=110GB
#p b3lyp/6-311g(d,p) nosymm pop=full iop(3/33=1) punch=mo

c47

0 1
 C                 -8.30720908   -7.48665466    3.55349525
 C                 -8.27920908   -6.63065466    2.49749525
 C                 -7.65820908   -6.94865466    1.26249525
 C                 -7.64320908   -6.04965466    0.17749525
 C                 -6.98820908   -6.38265466   -1.04050475
 C                 -6.93920908   -5.51865466   -2.12250475
 C                 -6.39120908   -7.72665466   -1.17450475
 C                 -6.50620908   -8.57065466   -0.11650475
 C                 -7.02720908   -8.26665466    1.12849525
 C                 -7.15320908   -9.13565466    2.21949525
 C                 -7.66520908   -8.81865466    3.42449525
 H                 -8.79720908   -7.16765466    4.62049525
 H                 -8.68820908   -5.60665466    2.59049525
 H                 -8.07720908   -5.03665466    0.31349525
 H                 -7.40620908   -4.50065466   -1.97750475
 H                 -6.04820908   -9.58165466   -0.20850475
 H                 -6.69620908  -10.14165466    2.14049525
 H                 -7.67620908   -9.49765466    4.30149525
 C                 -6.33920908   -5.83765466   -3.36050475
 C                 -5.79120908   -8.04565466   -2.41250475
 C                 -5.74120908   -7.18265466   -3.49450475
 C                 -6.22420908   -4.99465466   -4.41850475
 H                 -5.32320908   -9.06465466   -2.55750475
 C                 -5.08720908   -7.51565466   -4.71250475
 C                 -5.70220908   -5.29865466   -5.66350475
 H                 -6.68220908   -3.98365466   -4.32650475
 C                 -5.07220908   -6.61665466   -5.79750475
 H                 -4.65320908   -8.52765466   -4.84850475
 C                 -5.57720908   -4.42965466   -6.75450475
 C                 -4.45120908   -6.93365466   -7.03250475
 C                 -5.06520908   -4.74665466   -7.95950475
 H                 -6.03420908   -3.42365466   -6.67550475
 C                 -4.42320908   -6.07865466   -8.08850475
 H                 -4.04220908   -7.95865466   -7.12550475
 H                 -5.05320908   -4.06765466   -8.83650475
 H                 -3.93320908   -6.39765466   -9.15550475
 C                 -5.55955519   -5.28557798    4.80563065
 C                 -5.53155519   -4.42957798    3.74963065
 C                 -4.91055519   -4.74757798    2.51463065
 C                 -4.89555519   -3.84857798    1.42963065
 C                 -4.24055519   -4.18157798    0.21163065
 C                 -4.19155519   -3.31757798   -0.87036935
 C                 -3.64355519   -5.52557798    0.07763065
 C                 -3.75855519   -6.36957798    1.13563065
 C                 -4.27955519   -6.06557798    2.38063065
 C                 -4.40555519   -6.93457798    3.47163065
 C                 -4.91755519   -6.61757798    4.67663065
 H                 -6.04955519   -4.96657798    5.87263065
 H                 -5.94055519   -3.40557798    3.84263065
 H                 -5.32955519   -2.83557798    1.56563065
 H                 -4.65855519   -2.29957798   -0.72536935
 H                 -3.30055519   -7.38057798    1.04363065
 H                 -3.94855519   -7.94057798    3.39263065
 H                 -4.92855519   -7.29657798    5.55363065
 C                 -3.59155519   -3.63657798   -2.10836935
 C                 -3.04355519   -5.84457798   -1.16036935
 C                 -2.99355519   -4.98157798   -2.24236935
 C                 -3.47655519   -2.79357798   -3.16636935
 H                 -2.57555519   -6.86357798   -1.30536935
 C                 -2.33955519   -5.31457798   -3.46036935
 C                 -2.95455519   -3.09757798   -4.41136935
 H                 -3.93455519   -1.78257798   -3.07436935
 C                 -2.32455519   -4.41557798   -4.54536935
 H                 -1.90555519   -6.32657798   -3.59636935
 C                 -2.82955519   -2.22857798   -5.50236935
 C                 -1.70355519   -4.73257798   -5.78036935
 C                 -2.31755519   -2.54557798   -6.70736935
 H                 -3.28655519   -1.22257798   -5.42336935
 C                 -1.67555519   -3.87757798   -6.83636935
 H                 -1.29455519   -5.75757798   -5.87336935
 H                 -2.30555519   -1.86657798   -7.58436935
 H                 -1.18555519   -4.19657798   -7.90336935

 1 2 2.0 11 1.0 12 1.0
 2 3 1.5 13 1.0
 3 4 1.5 9 1.0
 4 5 1.5 14 1.0
 5 6 2.0 7 1.0
 6 15 1.0 19 1.5
 7 8 2.0 20 1.5
 8 9 2.0 16 1.0
 9 10 1.5
 10 11 2.0 17 1.0
 11 18 1.0
 12
 13
 14
 15
 16
 17
 18
 19 21 1.0 22 2.0
 20 21 2.0 23 1.0
 21 24 1.5
 22 25 2.0 26 1.0
 23
 24 27 1.5 28 1.0
 25 27 1.0 29 1.5
 26
 27 30 1.5
 28
 29 31 2.0 32 1.0
 30 33 2.0 34 1.0
 31 33 1.0 35 1.0
 32
 33 36 1.0
 34
 35
 36
 37 38 2.0 47 1.0 48 1.0
 38 39 1.5 49 1.0
 39 40 1.5 45 1.0
 40 41 1.5 50 1.0
 41 42 2.0 43 1.0
 42 51 1.0 55 1.5
 43 44 2.0 56 1.5
 44 45 2.0 52 1.0
 45 46 1.5
 46 47 2.0 53 1.0
 47 54 1.0
 48
 49
 50
 51
 52
 53
 54
 55 57 1.0 58 2.0
 56 57 2.0 59 1.0
 57 60 1.5
 58 61 2.0 62 1.0
 59
 60 63 1.5 64 1.0
 61 63 1.0 65 1.5
 62
 63 66 1.5
 64
 65 67 2.0 68 1.0
 66 69 2.0 70 1.0
 67 69 1.0 71 1.0
 68
 69 72 1.0
 70
 71
 72


