%chk=/oasis/projects/nsf/lhu120/cmw414/pent_stack/5_9A/dimer/dimer.chk
%nprocshared=24
%mem=110GB
#p b3lyp/6-311g(d,p) nosymm pop=full iop(3/33=1) punch=mo

c47

0 1
 C                 -8.71269653   -6.57702505    3.64379411
 C                 -8.68469653   -5.72102505    2.58779411
 C                 -8.06369653   -6.03902505    1.35279411
 C                 -8.04869653   -5.14002505    0.26779411
 C                 -7.39369653   -5.47302505   -0.95020589
 C                 -7.34469653   -4.60902505   -2.03220589
 C                 -6.79669653   -6.81702505   -1.08420589
 C                 -6.91169653   -7.66102505   -0.02620589
 C                 -7.43269653   -7.35702505    1.21879411
 C                 -7.55869653   -8.22602505    2.30979411
 C                 -8.07069653   -7.90902505    3.51479411
 H                 -9.20269653   -6.25802505    4.71079411
 H                 -9.09369653   -4.69702505    2.68079411
 H                 -8.48269653   -4.12702505    0.40379411
 H                 -7.81169653   -3.59102505   -1.88720589
 H                 -6.45369653   -8.67202505   -0.11820589
 H                 -7.10169653   -9.23202505    2.23079411
 H                 -8.08169653   -8.58802505    4.39179411
 C                 -6.74469653   -4.92802505   -3.27020589
 C                 -6.19669653   -7.13602505   -2.32220589
 C                 -6.14669653   -6.27302505   -3.40420589
 C                 -6.62969653   -4.08502505   -4.32820589
 H                 -5.72869653   -8.15502505   -2.46720589
 C                 -5.49269653   -6.60602505   -4.62220589
 C                 -6.10769653   -4.38902505   -5.57320589
 H                 -7.08769653   -3.07402505   -4.23620589
 C                 -5.47769653   -5.70702505   -5.70720589
 H                 -5.05869653   -7.61802505   -4.75820589
 C                 -5.98269653   -3.52002505   -6.66420589
 C                 -4.85669653   -6.02402505   -6.94220589
 C                 -5.47069653   -3.83702505   -7.86920589
 H                 -6.43969653   -2.51402505   -6.58520589
 C                 -4.82869653   -5.16902505   -7.99820589
 H                 -4.44769653   -7.04902505   -7.03520589
 H                 -5.45869653   -3.15802505   -8.74620589
 H                 -4.33869653   -5.48802505   -9.06520589
 C                 -3.54505122   -4.46048803    5.54791401
 C                 -3.51705122   -3.60448803    4.49191401
 C                 -2.89605122   -3.92248803    3.25691401
 C                 -2.88105122   -3.02348803    2.17191401
 C                 -2.22605122   -3.35648803    0.95391401
 C                 -2.17705122   -2.49248803   -0.12808599
 C                 -1.62905122   -4.70048803    0.81991401
 C                 -1.74405122   -5.54448803    1.87791401
 C                 -2.26505122   -5.24048803    3.12291401
 C                 -2.39105122   -6.10948803    4.21391401
 C                 -2.90305122   -5.79248803    5.41891401
 H                 -4.03505122   -4.14148803    6.61491401
 H                 -3.92605122   -2.58048803    4.58491401
 H                 -3.31505122   -2.01048803    2.30791401
 H                 -2.64405122   -1.47448803    0.01691401
 H                 -1.28605122   -6.55548803    1.78591401
 H                 -1.93405122   -7.11548803    4.13491401
 H                 -2.91405122   -6.47148803    6.29591401
 C                 -1.57705122   -2.81148803   -1.36608599
 C                 -1.02905122   -5.01948803   -0.41808599
 C                 -0.97905122   -4.15648803   -1.50008599
 C                 -1.46205122   -1.96848803   -2.42408599
 H                 -0.56105122   -6.03848803   -0.56308599
 C                 -0.32505122   -4.48948803   -2.71808599
 C                 -0.94005122   -2.27248803   -3.66908599
 H                 -1.92005122   -0.95748803   -2.33208599
 C                 -0.31005122   -3.59048803   -3.80308599
 H                  0.10894878   -5.50148803   -2.85408599
 C                 -0.81505122   -1.40348803   -4.76008599
 C                  0.31094878   -3.90748803   -5.03808599
 C                 -0.30305122   -1.72048803   -5.96508599
 H                 -1.27205122   -0.39748803   -4.68108599
 C                  0.33894878   -3.05248803   -6.09408599
 H                  0.71994878   -4.93248803   -5.13108599
 H                 -0.29105122   -1.04148803   -6.84208599
 H                  0.82894878   -3.37148803   -7.16108599

 1 2 2.0 11 1.0 12 1.0
 2 3 1.5 13 1.0
 3 4 1.5 9 1.0
 4 5 1.5 14 1.0
 5 6 2.0 7 1.0
 6 15 1.0 19 1.5
 7 8 2.0 20 1.5
 8 9 2.0 16 1.0
 9 10 1.5
 10 11 2.0 17 1.0
 11 18 1.0
 12
 13
 14
 15
 16
 17
 18
 19 21 1.0 22 2.0
 20 21 2.0 23 1.0
 21 24 1.5
 22 25 2.0 26 1.0
 23
 24 27 1.5 28 1.0
 25 27 1.0 29 1.5
 26
 27 30 1.5
 28
 29 31 2.0 32 1.0
 30 33 2.0 34 1.0
 31 33 1.0 35 1.0
 32
 33 36 1.0
 34
 35
 36
 37 38 2.0 47 1.0 48 1.0
 38 39 1.5 49 1.0
 39 40 1.5 45 1.0
 40 41 1.5 50 1.0
 41 42 2.0 43 1.0
 42 51 1.0 55 1.5
 43 44 2.0 56 1.5
 44 45 2.0 52 1.0
 45 46 1.5
 46 47 2.0 53 1.0
 47 54 1.0
 48
 49
 50
 51
 52
 53
 54
 55 57 1.0 58 2.0
 56 57 2.0 59 1.0
 57 60 1.5
 58 61 2.0 62 1.0
 59
 60 63 1.5 64 1.0
 61 63 1.0 65 1.5
 62
 63 66 1.5
 64
 65 67 2.0 68 1.0
 66 69 2.0 70 1.0
 67 69 1.0 71 1.0
 68
 69 72 1.0
 70
 71
 72


