%chk=/oasis/projects/nsf/lhu120/cmw414/rc_slip_x_new/1_8A/dimer/dimer.chk
%mem=110GB
#p b3lyp/6-311g(d,p) nosymm pop=full iop(3/33=1) punch=mo

c47

2 1
 O                  1.86343256   -2.18814168   -0.63312396
 O                 -1.87688744    1.76594132   -0.63317696
 C                  3.69461456   -0.67140268   -0.87047896
 C                 -1.39648944   -0.60712468   -0.87219696
 C                  5.97175156   -1.62878468   -0.73581696
 C                  0.95630456   -1.17504168   -0.77241696
 C                  3.19421256   -1.96292068   -0.63793396
 C                  5.65376956    0.77013232   -1.23999596
 C                  1.38305156    0.18492932   -0.87218096
 C                 -3.20766744    1.54071032   -0.63799196
 C                 -2.81321944   -0.85705968   -1.03609996
 C                 -3.70805744    0.24918032   -0.87049696
 C                 -0.37497644   -1.59266368   -0.78251796
 C                  0.36153156    1.17047132   -0.78252296
 C                  5.10807156   -0.51188368   -0.94441996
 C                 -0.96975044    0.75284632   -0.77244796
 C                  5.39488456   -2.90675768   -0.47207296
 H                  6.04966056   -3.75780568   -0.31297796
 C                  4.74462556    1.84550032   -1.48258496
 H                  5.14791656    2.81613132   -1.75583896
 C                  3.38157356    1.68676032   -1.38711396
 H                  2.74968056    2.53497832   -1.59754396
 C                  4.02720956   -3.07643968   -0.43155996
 H                  3.57365556   -4.04439768   -0.25108496
 C                 -5.12151244    0.08963932   -0.94441896
 C                  2.79978656    0.43484332   -1.03611196
 C                  7.36964356   -1.42936968   -0.80567596
 H                  8.03205756   -2.27390668   -0.64047896
 C                  7.05237556    0.92132132   -1.30766596
 H                  7.47035056    1.89702532   -1.53701096
 C                 -0.64793744   -3.04866968   -0.59509396
 C                 -5.66719544   -1.19239768   -1.23993096
 C                  0.63446856    2.62647732   -0.59506596
 C                 -3.39498944   -2.10900768   -1.38701396
 H                 -2.76308144   -2.95723068   -1.59738596
 C                 -4.04067744    2.65422632   -0.43164996
 H                 -3.58713344    3.62219432   -0.25120396
 C                 -7.06580044   -1.34360768   -1.30758296
 H                 -7.48376544   -2.31932768   -1.53687896
 C                  7.89727656   -0.17032768   -1.08596396
 H                  8.97295756   -0.03707868   -1.13791896
 C                 -5.40835044    2.48452732   -0.47215796
 H                 -6.06313544    3.33557232   -0.31308796
 C                  1.19132356    3.07285032    0.61237504
 H                  1.43075056    2.35253132    1.38925504
 C                 -5.98520444    1.20653832   -0.73585396
 C                 -4.75804044   -2.26777068   -1.48246496
 H                 -5.16132144   -3.23842268   -1.75565596
 C                 -1.20495544   -3.49503768    0.61227204
 H                 -1.44447744   -2.77471768    1.38912204
 C                 -0.33428944   -3.98126668   -1.59421096
 H                  0.10494656   -3.63898068   -2.52632896
 C                 -7.38309444    1.00710232   -0.80569496
 H                 -8.04551744    1.85163832   -0.64052696
 C                 -1.46487044   -4.85334768    0.80924704
 H                 -1.90033044   -5.18805568    1.74603204
 C                 -1.16705344   -5.77762768   -0.19748196
 H                 -1.37357744   -6.83295368   -0.04661296
 C                  1.45120356    4.43116132    0.80938404
 H                  1.88654356    4.76587132    1.74622404
 C                  0.32092856    3.55907532   -1.59421596
 H                 -0.11819244    3.21678732   -2.52638696
 C                 -7.91071344   -0.25195768   -1.08592496
 H                 -8.98639244   -0.38522368   -1.13786596
 C                 -0.59829944   -5.33868768   -1.39838196
 H                 -0.36076744   -6.05187768   -2.18204296
 C                  1.15351056    5.35543932   -0.19738296
 H                  1.36000956    6.41076732   -0.04648696
 C                  0.58490756    4.91649632   -1.39835396
 H                  0.34746656    5.62968632   -2.18204196
 O                 14.01302851   -0.88357988    2.99435369
 O                 10.01659406    2.52969376    1.57913611
 C                 15.74209416    0.56217209    2.20050525
 C                 10.65885466    0.27291242    2.22240457
 C                 18.07574899   -0.12110877    2.65575184
 C                 13.04245629   -0.05657191    2.50170500
 C                 15.32561706   -0.58531283    2.89500024
 C                 17.60604949    1.89847063    1.31009468
 C                 13.37867443    1.19804451    1.90632109
 C                  8.70416502    2.22789092    1.66953895
 C                  9.26496203   -0.11598237    2.17465764
 C                  8.29537561    0.91000589    1.93139528
 C                 11.74251044   -0.53887367    2.65773407
 C                 12.29205179    2.07554022    1.63783043
 C                 17.14270731    0.77979834    2.06016322
 C                 10.99177218    1.60062790    1.81263064
 C                 17.58156650   -1.24982457    3.37501239
 H                 18.28919974   -1.93646535    3.82900045
 C                 16.63099706    2.74527520    0.69853655
 H                 16.97277534    3.57343660    0.08471881
 C                 15.28026114    2.53970835    0.85815667
 H                 14.59649321    3.20647981    0.35723696
 C                 16.22785903   -1.48599730    3.48755884
 H                 15.83728965   -2.34911007    4.01454751
 C                 14.77798382    1.46680496    1.64908682
 C                 19.45809273    0.13396951    2.50472356
 H                 20.17280861   -0.54387121    2.96193057
 C                 18.99230193    2.10964881    1.17877810
 H                 19.34766450    2.95961001    0.60381382
 C                 11.56470188   -1.83996699    3.36845848
 C                  6.44363530   -0.69707585    2.13436434
 C                 12.46364960    3.51398466    1.27586362
 C                  8.77428775   -1.44608857    2.31259609
 H                  9.46501564   -2.26704141    2.42203913
 C                  7.79509908    3.27978685    1.46093741
 H                  8.17970140    4.27514616    1.26971534
 C                  5.05961854   -0.95785412    2.13979654
 H                  4.71183616   -1.97587109    2.28808605
 C                 19.90470062    1.23568881    1.77746798
 H                 20.96974153    1.41388659    1.67033420
 C                  6.44273186    3.01391317    1.49811503
 H                  5.72983904    3.81712313    1.34012179
 C                 12.96932950    4.40868186    2.23035557
 H                 13.24364638    4.04128702    3.21498675
 C                  5.95726795    1.69193453    1.72669605
 C                  7.42670522   -1.72162866    2.29460705
 C                 11.01900654   -1.84990890    4.66049713
 H                 10.71895301   -0.91324805    5.12132461
 C                 11.95660142   -3.04997441    2.77799779
 H                 12.38722971   -3.04382382    1.78127647
 C                  4.57723315    1.38565218    1.74776701
 H                  3.85705621    2.18453388    1.59790393
 C                 10.84750678   -3.05595404    5.34416659
 H                 10.42006053   -3.05310441    6.34241635
 C                 11.22318124   -4.26211569    4.74372131
 H                 11.08539735   -5.20024930    5.27291646
 C                 13.13429220    5.75907746    1.91321524
 H                 13.53069745    6.44269946    2.65802710
 C                 12.10483591    3.99185479    0.00730540
 H                 11.70508958    3.30265285   -0.73034943
 C                  4.13989088    0.07854878    1.95357081
 C                 11.78097576   -4.25589463    3.46031302
 H                 12.07867852   -5.18857085    2.99055338
 C                 12.79197110    6.22752037    0.64047480
 H                 12.92474976    7.27621788    0.39201561
 C                 12.27396642    5.34128467   -0.31061359
 H                 12.00222101    5.69970567   -1.29898290
 C                  6.89720616    0.63818381    1.93418621
 H                  7.09886419   -2.73485332    2.39851106
 H                  3.09140966   -0.13471226    1.96390847

 1 6 1.0 7 1.0
 2 10 1.0 16 1.0
 3 7 1.5 15 1.5 26 1.5
 4 11 1.0 13 1.5 16 1.5
 5 15 1.5 17 1.5 27 1.5
 6 9 1.5 13 1.5
 7 23 1.5
 8 15 1.5 19 1.5 29 1.5
 9 14 1.5 26 1.0
 10 12 1.5 36 1.5
 11 12 1.5 34 1.5
 12 25 1.5
 13 31 1.0
 14 16 1.5 33 1.0
 15
 16
 17 18 1.0 23 2.0
 18
 19 20 1.0 21 2.0
 20
 21 22 1.0 26 1.5
 22
 23 24 1.0
 24
 25 32 1.5 46 1.5
 26
 27 28 1.0 40 1.5
 28
 29 30 1.0 40 1.5
 30
 31 49 1.5 51 1.5
 32 38 1.5 47 1.5
 33 44 1.5 61 1.5
 34 35 1.0 47 2.0
 35
 36 37 1.0 42 2.0
 37
 38 39 1.0 63 1.5
 39
 40 41 1.0
 41
 42 43 1.0 46 1.5
 43
 44 45 1.0 59 1.5
 45
 46 53 1.5
 47 48 1.0
 48
 49 50 1.0 55 1.5
 50
 51 52 1.0 65 1.5
 52
 53 54 1.0 63 1.5
 54
 55 56 1.0 57 1.5
 56
 57 58 1.0 65 1.5
 58
 59 60 1.0 67 1.5
 60
 61 62 1.0 69 1.5
 62
 63 64 1.0
 64
 65 66 1.0
 66
 67 68 1.0 69 1.5
 68
 69 70 1.0
 70
 71 76 1.0 77 1.0
 72 80 1.0 86 1.0
 73 77 1.5 85 1.5 95 1.5
 74 81 1.0 83 1.5 86 1.5
 75 85 1.5 87 1.5 96 1.5
 76 79 1.5 83 1.5
 77 93 1.5
 78 85 1.5 89 1.5 98 1.5
 79 84 1.5 95 1.0
 80 82 1.5 105 1.5
 81 82 1.5 103 1.5
 82 140 1.5
 83 100 1.0
 84 86 1.5 102 1.0
 85
 86
 87 88 1.0 93 2.0
 88
 89 90 1.0 91 2.0
 90
 91 92 1.0 95 1.5
 92
 93 94 1.0
 94
 95
 96 97 1.0 109 1.5
 97
 98 99 1.0 109 1.5
 99
 100 118 1.5 120 1.5
 101 107 1.5 116 1.5 140 1.5
 102 113 1.5 130 1.5
 103 104 1.0 116 2.0
 104
 105 106 1.0 111 2.0
 106
 107 108 1.0 132 1.5
 108
 109 110 1.0
 110
 111 112 1.0 115 1.5
 112
 113 114 1.0 128 1.5
 114
 115 122 1.5 140 1.5
 116 117 1.0
 117
 118 119 1.0 124 1.5
 119
 120 121 1.0 134 1.5
 121
 122 123 1.0 132 1.5
 123
 124 125 1.0 126 1.5
 125
 126 127 1.0 134 1.5
 127
 128 129 1.0 136 1.5
 129
 130 131 1.0 138 1.5
 131
 132 133 1.0
 133
 134 135 1.0
 135
 136 137 1.0 138 1.5
 137
 138 139 1.0
 139
 140



























