%chk=/home/cmw414/pcpl_transfer_integral/rc_stack/2_2A/dimer/dimer.chk
%nprocshared=20
%mem=110GB
#p b3lyp/6-311g(d,p) nosymm pop=full iop(3/33=1) punch=mo

c47

2 1
 O                  1.86932170   -2.00341896    0.04203738
 O                 -1.87099830    1.95066404    0.04198438
 C                  3.70050370   -0.48667996   -0.19531762
 C                 -1.39060030   -0.42240196   -0.19703562
 C                  5.97764070   -1.44406196   -0.06065562
 C                  0.96219370   -0.99031896   -0.09725562
 C                  3.20010170   -1.77819796    0.03722738
 C                  5.65965870    0.95485504   -0.56483462
 C                  1.38894070    0.36965204   -0.19701962
 C                 -3.20177830    1.72543304    0.03716938
 C                 -2.80733030   -0.67233696   -0.36093862
 C                 -3.70216830    0.43390304   -0.19533562
 C                 -0.36908730   -1.40794096   -0.10735662
 C                  0.36742070    1.35519404   -0.10736162
 C                  5.11396070   -0.32716096   -0.26925862
 C                 -0.96386130    0.93756904   -0.09728662
 C                  5.40077370   -2.72203496    0.20308838
 H                  6.05554970   -3.57308296    0.36218338
 C                  4.75051470    2.03022304   -0.80742362
 H                  5.15380570    3.00085404   -1.08067762
 C                  3.38746270    1.87148304   -0.71195262
 H                  2.75556970    2.71970104   -0.92238262
 C                  4.03309870   -2.89171696    0.24360138
 H                  3.57954470   -3.85967496    0.42407638
 C                 -5.11562330    0.27436204   -0.26925762
 C                  2.80567570    0.61956604   -0.36095062
 C                  7.37553270   -1.24464696   -0.13051462
 H                  8.03794670   -2.08918396    0.03468238
 C                  7.05826470    1.10604404   -0.63250462
 H                  7.47623970    2.08174804   -0.86184962
 C                 -0.64204830   -2.86394696    0.08006738
 C                 -5.66130630   -1.00767496   -0.56476962
 C                  0.64035770    2.81120004    0.08009538
 C                 -3.38910030   -1.92428496   -0.71185262
 H                 -2.75719230   -2.77250796   -0.92222462
 C                 -4.03478830    2.83894904    0.24351138
 H                 -3.58124430    3.80691704    0.42395738
 C                 -7.05991130   -1.15888496   -0.63242162
 H                 -7.47787630   -2.13460496   -0.86171762
 C                  7.90316570    0.01439504   -0.41080262
 H                  8.97884670    0.14764404   -0.46275762
 C                 -5.40246130    2.66925004    0.20300338
 H                 -6.05724630    3.52029504    0.36207338
 C                  1.19721270    3.25757304    1.28753638
 H                  1.43663970    2.53725404    2.06441638
 C                 -5.97931530    1.39126104   -0.06069262
 C                 -4.75215130   -2.08304796   -0.80730362
 H                 -5.15543230   -3.05369996   -1.08049462
 C                 -1.19906630   -3.31031496    1.28743338
 H                 -1.43858830   -2.58999496    2.06428338
 C                 -0.32840030   -3.79654396   -0.91904962
 H                  0.11083570   -3.45425796   -1.85116762
 C                 -7.37720530    1.19182504   -0.13053362
 H                 -8.03962830    2.03636104    0.03463438
 C                 -1.45898130   -4.66862496    1.48440838
 H                 -1.89444130   -5.00333296    2.42119338
 C                 -1.16116430   -5.59290496    0.47767938
 H                 -1.36768830   -6.64823096    0.62854838
 C                  1.45709270    4.61588404    1.48454538
 H                  1.89243270    4.95059404    2.42138538
 C                  0.32681770    3.74379804   -0.91905462
 H                 -0.11230330    3.40151004   -1.85122562
 C                 -7.90482430   -0.06723496   -0.41076362
 H                 -8.98050330   -0.20050096   -0.46270462
 C                 -0.59241030   -5.15396496   -0.72322062
 H                 -0.35487830   -5.86715496   -1.50688162
 C                  1.15939970    5.54016204    0.47777838
 H                  1.36589870    6.59549004    0.62867438
 C                  0.59079670    5.10121904   -0.72319262
 H                  0.35335570    5.81440904   -1.50688062
 O                 12.24829177   -1.26836756    2.91284451
 O                  8.25185732    2.14490608    1.49762693
 C                 13.97735742    0.17738441    2.11899607
 C                  8.89411792   -0.11187526    2.14089539
 C                 16.31101225   -0.50589645    2.57424266
 C                 11.27771955   -0.44135959    2.42019582
 C                 13.56088032   -0.97010051    2.81349106
 C                 15.84131275    1.51368295    1.22858550
 C                 11.61393769    0.81325683    1.82481191
 C                  6.93942828    1.84310324    1.58802977
 C                  7.50022529   -0.50077005    2.09314846
 C                  6.53063887    0.52521821    1.84988610
 C                  9.97777370   -0.92366135    2.57622489
 C                 10.52731505    1.69075254    1.55632125
 C                 15.37797057    0.39501066    1.97865404
 C                  9.22703544    1.21584022    1.73112146
 C                 15.81682976   -1.63461225    3.29350321
 H                 16.52446300   -2.32125303    3.74749127
 C                 14.86626032    2.36048752    0.61702737
 H                 15.20803860    3.18864892    0.00320963
 C                 13.51552440    2.15492067    0.77664749
 H                 12.83175647    2.82169213    0.27572778
 C                 14.46312229   -1.87078498    3.40604966
 H                 14.07255291   -2.73389775    3.93303833
 C                 13.01324708    1.08201728    1.56757764
 C                 17.69335599   -0.25081817    2.42321438
 H                 18.40807187   -0.92865889    2.88042139
 C                 17.22756519    1.72486113    1.09726892
 H                 17.58292776    2.57482233    0.52230464
 C                  9.79996514   -2.22475467    3.28694930
 C                  4.67889856   -1.08186353    2.05285516
 C                 10.69891286    3.12919698    1.19435444
 C                  7.00955101   -1.83087625    2.23108691
 H                  7.70027890   -2.65182909    2.34052995
 C                  6.03036234    2.89499917    1.37942823
 H                  6.41496466    3.89035848    1.18820616
 C                  3.29488180   -1.34264180    2.05828736
 H                  2.94709942   -2.36065877    2.20657687
 C                 18.13996388    0.85090113    1.69595880
 H                 19.20500479    1.02909891    1.58882502
 C                  4.67799512    2.62912549    1.41660585
 H                  3.96510230    3.43233545    1.25861261
 C                 11.20459276    4.02389418    2.14884639
 H                 11.47890964    3.65649934    3.13347757
 C                  4.19253121    1.30714685    1.64518687
 C                  5.66196848   -2.10641634    2.21309787
 H                  5.32921977   -3.13480868    2.31855729
 C                  9.25426980   -2.23469658    4.57898795
 H                  8.95421627   -1.29803573    5.03981543
 C                 10.19186468   -3.43476209    2.69648861
 H                 10.62249297   -3.42861150    1.69976729
 C                  2.81249641    1.00086450    1.66625783
 H                  2.09231947    1.79974620    1.51639475
 C                  9.08277004   -3.44074172    5.26265741
 H                  8.65532379   -3.43789209    6.26090717
 C                  9.45844450   -4.64690337    4.66221213
 H                  9.32066061   -5.58503698    5.19140728
 C                 11.36955546    5.37428978    1.83170606
 H                 11.76596071    6.05791178    2.57651792
 C                 10.34009917    3.60706711   -0.07420378
 H                  9.94035284    2.91786517   -0.81185861
 C                  2.37515414   -0.30623890    1.87206163
 H                  1.31183100   -0.52251879    1.88254563
 C                 10.01623902   -4.64068231    3.37880384
 H                 10.31394178   -5.57335853    2.90904420
 C                 11.02723436    5.84273269    0.55896562
 H                 11.16001302    6.89143020    0.31050643
 C                 10.50922968    4.95649699   -0.39212277
 H                 10.23748427    5.31491799   -1.38049208
 C                  5.13246942    0.25339613    1.85267703

 1 6 1.0 7 1.0
 2 10 1.0 16 1.0
 3 7 1.5 15 1.5 26 1.5
 4 11 1.0 13 1.5 16 1.5
 5 15 1.5 17 1.5 27 1.5
 6 9 1.5 13 1.5
 7 23 1.5
 8 15 1.5 19 1.5 29 1.5
 9 14 1.5 26 1.0
 10 12 1.5 36 1.5
 11 12 1.5 34 1.5
 12 25 1.5
 13 31 1.0
 14 16 1.5 33 1.0
 15
 16
 17 18 1.0 23 2.0
 18
 19 20 1.0 21 2.0
 20
 21 22 1.0 26 1.5
 22
 23 24 1.0
 24
 25 32 1.5 46 1.5
 26
 27 28 1.0 40 1.5
 28
 29 30 1.0 40 1.5
 30
 31 49 1.5 51 1.5
 32 38 1.5 47 1.5
 33 44 1.5 61 1.5
 34 35 1.0 47 2.0
 35
 36 37 1.0 42 2.0
 37
 38 39 1.0 63 1.5
 39
 40 41 1.0
 41
 42 43 1.0 46 1.5
 43
 44 45 1.0 59 1.5
 45
 46 53 1.5
 47 48 1.0
 48
 49 50 1.0 55 1.5
 50
 51 52 1.0 65 1.5
 52
 53 54 1.0 63 1.5
 54
 55 56 1.0 57 1.5
 56
 57 58 1.0 65 1.5
 58
 59 60 1.0 67 1.5
 60
 61 62 1.0 69 1.5
 62
 63 64 1.0
 64
 65 66 1.0
 66
 67 68 1.0 69 1.5
 68
 69 70 1.0
 70
 71 76 1.0 77 1.0
 72 80 1.0 86 1.0
 73 77 1.5 85 1.5 95 1.5
 74 81 1.0 83 1.5 86 1.5
 75 85 1.5 87 1.5 96 1.5
 76 79 1.5 83 1.5
 77 93 1.5
 78 85 1.5 89 1.5 98 1.5
 79 84 1.5 95 1.0
 80 82 1.5 105 1.5
 81 82 1.5 103 1.5
 82 140 1.5
 83 100 1.0
 84 86 1.5 102 1.0
 85
 86
 87 88 1.0 93 2.0
 88
 89 90 1.0 91 2.0
 90
 91 92 1.0 95 1.5
 92
 93 94 1.0
 94
 95
 96 97 1.0 109 1.5
 97
 98 99 1.0 109 1.5
 99
 100 118 1.5 120 1.5
 101 107 1.5 116 1.5 140 1.5
 102 113 1.5 130 1.5
 103 104 1.0 116 2.0
 104
 105 106 1.0 111 2.0
 106
 107 108 1.0 132 1.5
 108
 109 110 1.0
 110
 111 112 1.0 115 1.5
 112
 113 114 1.0 128 1.5
 114
 115 122 1.5 140 1.5
 116 117 1.0
 117
 118 119 1.0 124 1.5
 119
 120 121 1.0 134 1.5
 121
 122 123 1.0 132 1.5
 123
 124 125 1.0 126 1.5
 125
 126 127 1.0 134 1.5
 127
 128 129 1.0 136 1.5
 129
 130 131 1.0 138 1.5
 131
 132 133 1.0
 133
 134 135 1.0
 135
 136 137 1.0 138 1.5
 137
 138 139 1.0
 139
 140

