%chk=/oasis/projects/nsf/lhu120/cmw414/pent_stack/4_9A/dimer/dimer.chk
%nprocshared=24
%mem=110GB
#p b3lyp/6-311g(d,p) nosymm pop=full iop(3/33=1) punch=mo

c47

0 1
 C                 -8.71269653   -6.57702505    3.64379411
 C                 -8.68469653   -5.72102505    2.58779411
 C                 -8.06369653   -6.03902505    1.35279411
 C                 -8.04869653   -5.14002505    0.26779411
 C                 -7.39369653   -5.47302505   -0.95020589
 C                 -7.34469653   -4.60902505   -2.03220589
 C                 -6.79669653   -6.81702505   -1.08420589
 C                 -6.91169653   -7.66102505   -0.02620589
 C                 -7.43269653   -7.35702505    1.21879411
 C                 -7.55869653   -8.22602505    2.30979411
 C                 -8.07069653   -7.90902505    3.51479411
 H                 -9.20269653   -6.25802505    4.71079411
 H                 -9.09369653   -4.69702505    2.68079411
 H                 -8.48269653   -4.12702505    0.40379411
 H                 -7.81169653   -3.59102505   -1.88720589
 H                 -6.45369653   -8.67202505   -0.11820589
 H                 -7.10169653   -9.23202505    2.23079411
 H                 -8.08169653   -8.58802505    4.39179411
 C                 -6.74469653   -4.92802505   -3.27020589
 C                 -6.19669653   -7.13602505   -2.32220589
 C                 -6.14669653   -6.27302505   -3.40420589
 C                 -6.62969653   -4.08502505   -4.32820589
 H                 -5.72869653   -8.15502505   -2.46720589
 C                 -5.49269653   -6.60602505   -4.62220589
 C                 -6.10769653   -4.38902505   -5.57320589
 H                 -7.08769653   -3.07402505   -4.23620589
 C                 -5.47769653   -5.70702505   -5.70720589
 H                 -5.05869653   -7.61802505   -4.75820589
 C                 -5.98269653   -3.52002505   -6.66420589
 C                 -4.85669653   -6.02402505   -6.94220589
 C                 -5.47069653   -3.83702505   -7.86920589
 H                 -6.43969653   -2.51402505   -6.58520589
 C                 -4.82869653   -5.16902505   -7.99820589
 H                 -4.44769653   -7.04902505   -7.03520589
 H                 -5.45869653   -3.15802505   -8.74620589
 H                 -4.33869653   -5.48802505   -9.06520589
 C                 -4.42092381   -4.81922332    5.22518164
 C                 -4.39292381   -3.96322332    4.16918164
 C                 -3.77192381   -4.28122332    2.93418164
 C                 -3.75692381   -3.38222332    1.84918164
 C                 -3.10192381   -3.71522332    0.63118164
 C                 -3.05292381   -2.85122332   -0.45081836
 C                 -2.50492381   -5.05922332    0.49718164
 C                 -2.61992381   -5.90322332    1.55518164
 C                 -3.14092381   -5.59922332    2.80018164
 C                 -3.26692381   -6.46822332    3.89118164
 C                 -3.77892381   -6.15122332    5.09618164
 H                 -4.91092381   -4.50022332    6.29218164
 H                 -4.80192381   -2.93922332    4.26218164
 H                 -4.19092381   -2.36922332    1.98518164
 H                 -3.51992381   -1.83322332   -0.30581836
 H                 -2.16192381   -6.91422332    1.46318164
 H                 -2.80992381   -7.47422332    3.81218164
 H                 -3.78992381   -6.83022332    5.97318164
 C                 -2.45292381   -3.17022332   -1.68881836
 C                 -1.90492381   -5.37822332   -0.74081836
 C                 -1.85492381   -4.51522332   -1.82281836
 C                 -2.33792381   -2.32722332   -2.74681836
 H                 -1.43692381   -6.39722332   -0.88581836
 C                 -1.20092381   -4.84822332   -3.04081836
 C                 -1.81592381   -2.63122332   -3.99181836
 H                 -2.79592381   -1.31622332   -2.65481836
 C                 -1.18592381   -3.94922332   -4.12581836
 H                 -0.76692381   -5.86022332   -3.17681836
 C                 -1.69092381   -1.76222332   -5.08281836
 C                 -0.56492381   -4.26622332   -5.36081836
 C                 -1.17892381   -2.07922332   -6.28781836
 H                 -2.14792381   -0.75622332   -5.00381836
 C                 -0.53692381   -3.41122332   -6.41681836
 H                 -0.15592381   -5.29122332   -5.45381836
 H                 -1.16692381   -1.40022332   -7.16481836
 H                 -0.04692381   -3.73022332   -7.48381836

 1 2 2.0 11 1.0 12 1.0
 2 3 1.5 13 1.0
 3 4 1.5 9 1.0
 4 5 1.5 14 1.0
 5 6 2.0 7 1.0
 6 15 1.0 19 1.5
 7 8 2.0 20 1.5
 8 9 2.0 16 1.0
 9 10 1.5
 10 11 2.0 17 1.0
 11 18 1.0
 12
 13
 14
 15
 16
 17
 18
 19 21 1.0 22 2.0
 20 21 2.0 23 1.0
 21 24 1.5
 22 25 2.0 26 1.0
 23
 24 27 1.5 28 1.0
 25 27 1.0 29 1.5
 26
 27 30 1.5
 28
 29 31 2.0 32 1.0
 30 33 2.0 34 1.0
 31 33 1.0 35 1.0
 32
 33 36 1.0
 34
 35
 36
 37 38 2.0 47 1.0 48 1.0
 38 39 1.5 49 1.0
 39 40 1.5 45 1.0
 40 41 1.5 50 1.0
 41 42 2.0 43 1.0
 42 51 1.0 55 1.5
 43 44 2.0 56 1.5
 44 45 2.0 52 1.0
 45 46 1.5
 46 47 2.0 53 1.0
 47 54 1.0
 48
 49
 50
 51
 52
 53
 54
 55 57 1.0 58 2.0
 56 57 2.0 59 1.0
 57 60 1.5
 58 61 2.0 62 1.0
 59
 60 63 1.5 64 1.0
 61 63 1.0 65 1.5
 62
 63 66 1.5
 64
 65 67 2.0 68 1.0
 66 69 2.0 70 1.0
 67 69 1.0 71 1.0
 68
 69 72 1.0
 70
 71
 72


