%chk=/home/cmw414/pcpl_transfer_integral/rc_stack/7_9A/dimer/dimer.chk
%nprocshared=20
%mem=110GB
#p b3lyp/6-311g(d,p) nosymm pop=full iop(3/33=1) punch=mo

c47

2 1
 O                  1.82220854   -3.48120069   -5.35925334
 O                 -1.91811146    0.47288231   -5.35930634
 C                  3.65339054   -1.96446169   -5.59660834
 C                 -1.43771346   -1.90018369   -5.59832634
 C                  5.93052754   -2.92184369   -5.46194634
 C                  0.91508054   -2.46810069   -5.49854634
 C                  3.15298854   -3.25597969   -5.36406334
 C                  5.61254554   -0.52292669   -5.96612534
 C                  1.34182754   -1.10812969   -5.59831034
 C                 -3.24889146    0.24765131   -5.36412134
 C                 -2.85444346   -2.15011869   -5.76222934
 C                 -3.74928146   -1.04387869   -5.59662634
 C                 -0.41620046   -2.88572269   -5.50864734
 C                  0.32030754   -0.12258769   -5.50865234
 C                  5.06684754   -1.80494269   -5.67054934
 C                 -1.01097446   -0.54021269   -5.49857734
 C                  5.35366054   -4.19981669   -5.19820234
 H                  6.00843654   -5.05086469   -5.03910734
 C                  4.70340154    0.55244131   -6.20871434
 H                  5.10669254    1.52307231   -6.48196834
 C                  3.34034954    0.39370131   -6.11324334
 H                  2.70845654    1.24191931   -6.32367334
 C                  3.98598554   -4.36949869   -5.15768934
 H                  3.53243154   -5.33745669   -4.97721434
 C                 -5.16273646   -1.20341969   -5.67054834
 C                  2.75856254   -0.85821569   -5.76224134
 C                  7.32841954   -2.72242869   -5.53180534
 H                  7.99083354   -3.56696569   -5.36660834
 C                  7.01115154   -0.37173769   -6.03379534
 H                  7.42912654    0.60396631   -6.26314034
 C                 -0.68916146   -4.34172869   -5.32122334
 C                 -5.70841946   -2.48545669   -5.96606034
 C                  0.59324454    1.33341831   -5.32119534
 C                 -3.43621346   -3.40206669   -6.11314334
 H                 -2.80430546   -4.25028969   -6.32351534
 C                 -4.08190146    1.36116731   -5.15777934
 H                 -3.62835746    2.32913531   -4.97733334
 C                 -7.10702446   -2.63666669   -6.03371234
 H                 -7.52498946   -3.61238669   -6.26300834
 C                  7.85605254   -1.46338669   -5.81209334
 H                  8.93173354   -1.33013769   -5.86404834
 C                 -5.44957446    1.19146831   -5.19828734
 H                 -6.10435946    2.04251331   -5.03921734
 C                  1.15009954    1.77979131   -4.11375434
 H                  1.38952654    1.05947231   -3.33687434
 C                 -6.02642846   -0.08652069   -5.46198334
 C                 -4.79926446   -3.56082969   -6.20859434
 H                 -5.20254546   -4.53148169   -6.48178534
 C                 -1.24617946   -4.78809669   -4.11385734
 H                 -1.48570146   -4.06777669   -3.33700734
 C                 -0.37551346   -5.27432569   -6.32034034
 H                  0.06372254   -4.93203969   -7.25245834
 C                 -7.42431846   -0.28595669   -5.53182434
 H                 -8.08674146    0.55857931   -5.36665634
 C                 -1.50609446   -6.14640669   -3.91688234
 H                 -1.94155446   -6.48111469   -2.98009734
 C                 -1.20827746   -7.07068669   -4.92361134
 H                 -1.41480146   -8.12601269   -4.77274234
 C                  1.40997954    3.13810231   -3.91674534
 H                  1.84531954    3.47281231   -2.97990534
 C                  0.27970454    2.26601631   -6.32034534
 H                 -0.15941646    1.92372831   -7.25251634
 C                 -7.95193746   -1.54501669   -5.81205434
 H                 -9.02761646   -1.67828269   -5.86399534
 C                 -0.63952346   -6.63174669   -6.12451134
 H                 -0.40199146   -7.34493669   -6.90817234
 C                  1.11228654    4.06238031   -4.92351234
 H                  1.31878554    5.11770831   -4.77261634
 C                  0.54368354    3.62343731   -6.12448334
 H                  0.30624254    4.33662731   -6.90817134
 O                 12.24913308   -1.24197860    3.00929613
 O                  8.25269863    2.17129504    1.59407855
 C                 13.97819873    0.20377337    2.21544769
 C                  8.89495923   -0.08548630    2.23734701
 C                 16.31185356   -0.47950749    2.67069428
 C                 11.27856086   -0.41497063    2.51664744
 C                 13.56172163   -0.94371155    2.90994268
 C                 15.84215406    1.54007191    1.32503712
 C                 11.61477900    0.83964579    1.92126353
 C                  6.94026959    1.86949220    1.68448139
 C                  7.50106660   -0.47438109    2.18960008
 C                  6.53148018    0.55160717    1.94633772
 C                  9.97861501   -0.89727239    2.67267651
 C                 10.52815636    1.71714150    1.65277287
 C                 15.37881188    0.42139962    2.07510566
 C                  9.22787675    1.24222918    1.82757308
 C                 15.81767107   -1.60822329    3.38995483
 H                 16.52530431   -2.29486407    3.84394289
 C                 14.86710163    2.38687648    0.71347899
 H                 15.20887991    3.21503788    0.09966125
 C                 13.51636571    2.18130963    0.87309911
 H                 12.83259778    2.84808109    0.37217940
 C                 14.46396360   -1.84439602    3.50250128
 H                 14.07339422   -2.70750879    4.02948995
 C                 13.01408839    1.10840624    1.66402926
 C                 17.69419730   -0.22442921    2.51966600
 H                 18.40891318   -0.90226993    2.97687301
 C                 17.22840650    1.75125009    1.19372054
 H                 17.58376907    2.60121129    0.61875626
 C                  9.80080645   -2.19836571    3.38340092
 C                  4.67973987   -1.05547457    2.14930678
 C                 10.69975417    3.15558594    1.29080606
 C                  7.01039232   -1.80448729    2.32753853
 H                  7.70112021   -2.62544013    2.43698157
 C                  6.03120365    2.92138813    1.47587985
 H                  6.41580597    3.91674744    1.28465778
 C                  3.29572311   -1.31625284    2.15473898
 H                  2.94794073   -2.33426981    2.30302849
 C                 18.14080519    0.87729009    1.79241042
 H                 19.20584610    1.05548787    1.68527664
 C                  4.67883643    2.65551445    1.51305747
 H                  3.96594361    3.45872441    1.35506423
 C                 11.20543407    4.05028314    2.24529801
 H                 11.47975095    3.68288830    3.22992919
 C                  4.19337252    1.33353581    1.74163849
 C                  5.66280979   -2.08002738    2.30954949
 H                  5.33006108   -3.10841972    2.41500891
 C                  9.25511111   -2.20830762    4.67543957
 H                  8.95505758   -1.27164677    5.13626705
 C                 10.19270599   -3.40837313    2.79294023
 H                 10.62333428   -3.40222254    1.79621891
 C                  2.81333772    1.02725346    1.76270945
 H                  2.09316078    1.82613516    1.61284637
 C                  9.08361135   -3.41435276    5.35910903
 H                  8.65616510   -3.41150313    6.35735879
 C                  9.45928581   -4.62051441    4.75866375
 H                  9.32150192   -5.55864802    5.28785890
 C                 11.37039677    5.40067874    1.92815768
 H                 11.76680202    6.08430074    2.67296954
 C                 10.34094048    3.63345607    0.02224784
 H                  9.94119415    2.94425413   -0.71540699
 C                  2.37599545   -0.27984994    1.96851325
 H                  1.31267231   -0.49612983    1.97899725
 C                 10.01708033   -4.61429335    3.47525546
 H                 10.31478309   -5.54696957    3.00549582
 C                 11.02807567    5.86912165    0.65541724
 H                 11.16085433    6.91781916    0.40695805
 C                 10.51007099    4.98288595   -0.29567115
 H                 10.23832558    5.34130695   -1.28404046
 C                  5.13331073    0.27978509    1.94912865

 1 6 1.0 7 1.0
 2 10 1.0 16 1.0
 3 7 1.5 15 1.5 26 1.5
 4 11 1.0 13 1.5 16 1.5
 5 15 1.5 17 1.5 27 1.5
 6 9 1.5 13 1.5
 7 23 1.5
 8 15 1.5 19 1.5 29 1.5
 9 14 1.5 26 1.0
 10 12 1.5 36 1.5
 11 12 1.5 34 1.5
 12 25 1.5
 13 31 1.0
 14 16 1.5 33 1.0
 15
 16
 17 18 1.0 23 2.0
 18
 19 20 1.0 21 2.0
 20
 21 22 1.0 26 1.5
 22
 23 24 1.0
 24
 25 32 1.5 46 1.5
 26
 27 28 1.0 40 1.5
 28
 29 30 1.0 40 1.5
 30
 31 49 1.5 51 1.5
 32 38 1.5 47 1.5
 33 44 1.5 61 1.5
 34 35 1.0 47 2.0
 35
 36 37 1.0 42 2.0
 37
 38 39 1.0 63 1.5
 39
 40 41 1.0
 41
 42 43 1.0 46 1.5
 43
 44 45 1.0 59 1.5
 45
 46 53 1.5
 47 48 1.0
 48
 49 50 1.0 55 1.5
 50
 51 52 1.0 65 1.5
 52
 53 54 1.0 63 1.5
 54
 55 56 1.0 57 1.5
 56
 57 58 1.0 65 1.5
 58
 59 60 1.0 67 1.5
 60
 61 62 1.0 69 1.5
 62
 63 64 1.0
 64
 65 66 1.0
 66
 67 68 1.0 69 1.5
 68
 69 70 1.0
 70
 71 76 1.0 77 1.0
 72 80 1.0 86 1.0
 73 77 1.5 85 1.5 95 1.5
 74 81 1.0 83 1.5 86 1.5
 75 85 1.5 87 1.5 96 1.5
 76 79 1.5 83 1.5
 77 93 1.5
 78 85 1.5 89 1.5 98 1.5
 79 84 1.5 95 1.0
 80 82 1.5 105 1.5
 81 82 1.5 103 1.5
 82 140 1.5
 83 100 1.0
 84 86 1.5 102 1.0
 85
 86
 87 88 1.0 93 2.0
 88
 89 90 1.0 91 2.0
 90
 91 92 1.0 95 1.5
 92
 93 94 1.0
 94
 95
 96 97 1.0 109 1.5
 97
 98 99 1.0 109 1.5
 99
 100 118 1.5 120 1.5
 101 107 1.5 116 1.5 140 1.5
 102 113 1.5 130 1.5
 103 104 1.0 116 2.0
 104
 105 106 1.0 111 2.0
 106
 107 108 1.0 132 1.5
 108
 109 110 1.0
 110
 111 112 1.0 115 1.5
 112
 113 114 1.0 128 1.5
 114
 115 122 1.5 140 1.5
 116 117 1.0
 117
 118 119 1.0 124 1.5
 119
 120 121 1.0 134 1.5
 121
 122 123 1.0 132 1.5
 123
 124 125 1.0 126 1.5
 125
 126 127 1.0 134 1.5
 127
 128 129 1.0 136 1.5
 129
 130 131 1.0 138 1.5
 131
 132 133 1.0
 133
 134 135 1.0
 135
 136 137 1.0 138 1.5
 137
 138 139 1.0
 139
 140

