%chk=/oasis/projects/nsf/lhu120/cmw414/pent_slip_x/3_5A/dimer/dimer.chk
%nprocshared=24
%mem=110GB
#p b3lyp/6-311g(d,p) nosymm pop=full iop(3/33=1) punch=mo

c47

0 1
 C                 -7.78035427   -5.80950469    0.35872936
 C                 -7.75235427   -4.95350469   -0.69727064
 C                 -7.13135427   -5.27150469   -1.93227064
 C                 -7.11635427   -4.37250469   -3.01727064
 C                 -6.46135427   -4.70550469   -4.23527064
 C                 -6.41235427   -3.84150469   -5.31727064
 C                 -5.86435427   -6.04950469   -4.36927064
 C                 -5.97935427   -6.89350469   -3.31127064
 C                 -6.50035427   -6.58950469   -2.06627064
 C                 -6.62635427   -7.45850469   -0.97527064
 C                 -7.13835427   -7.14150469    0.22972936
 H                 -8.27035427   -5.49050469    1.42572936
 H                 -8.16135427   -3.92950469   -0.60427064
 H                 -7.55035427   -3.35950469   -2.88127064
 H                 -6.87935427   -2.82350469   -5.17227064
 H                 -5.52135427   -7.90450469   -3.40327064
 H                 -6.16935427   -8.46450469   -1.05427064
 H                 -7.14935427   -7.82050469    1.10672936
 C                 -5.81235427   -4.16050469   -6.55527064
 C                 -5.26435427   -6.36850469   -5.60727064
 C                 -5.21435427   -5.50550469   -6.68927064
 C                 -5.69735427   -3.31750469   -7.61327064
 H                 -4.79635427   -7.38750469   -5.75227064
 C                 -4.56035427   -5.83850469   -7.90727064
 C                 -5.17535427   -3.62150469   -8.85827064
 H                 -6.15535427   -2.30650469   -7.52127064
 C                 -4.54535427   -4.93950469   -8.99227064
 H                 -4.12635427   -6.85050469   -8.04327064
 C                 -5.05035427   -2.75250469   -9.94927064
 C                 -3.92435427   -5.25650469  -10.22727064
 C                 -4.53835427   -3.06950469  -11.15427064
 H                 -5.50735427   -1.74650469   -9.87027064
 C                 -3.89635427   -4.40150469  -11.28327064
 H                 -3.51535427   -6.28150469  -10.32027064
 H                 -4.52635427   -2.39050469  -12.03127064
 H                 -3.40635427   -4.72050469  -12.35027064
 C                 -5.55955519   -5.28557798    4.80563065
 C                 -5.53155519   -4.42957798    3.74963065
 C                 -4.91055519   -4.74757798    2.51463065
 C                 -4.89555519   -3.84857798    1.42963065
 C                 -4.24055519   -4.18157798    0.21163065
 C                 -4.19155519   -3.31757798   -0.87036935
 C                 -3.64355519   -5.52557798    0.07763065
 C                 -3.75855519   -6.36957798    1.13563065
 C                 -4.27955519   -6.06557798    2.38063065
 C                 -4.40555519   -6.93457798    3.47163065
 C                 -4.91755519   -6.61757798    4.67663065
 H                 -6.04955519   -4.96657798    5.87263065
 H                 -5.94055519   -3.40557798    3.84263065
 H                 -5.32955519   -2.83557798    1.56563065
 H                 -4.65855519   -2.29957798   -0.72536935
 H                 -3.30055519   -7.38057798    1.04363065
 H                 -3.94855519   -7.94057798    3.39263065
 H                 -4.92855519   -7.29657798    5.55363065
 C                 -3.59155519   -3.63657798   -2.10836935
 C                 -3.04355519   -5.84457798   -1.16036935
 C                 -2.99355519   -4.98157798   -2.24236935
 C                 -3.47655519   -2.79357798   -3.16636935
 H                 -2.57555519   -6.86357798   -1.30536935
 C                 -2.33955519   -5.31457798   -3.46036935
 C                 -2.95455519   -3.09757798   -4.41136935
 H                 -3.93455519   -1.78257798   -3.07436935
 C                 -2.32455519   -4.41557798   -4.54536935
 H                 -1.90555519   -6.32657798   -3.59636935
 C                 -2.82955519   -2.22857798   -5.50236935
 C                 -1.70355519   -4.73257798   -5.78036935
 C                 -2.31755519   -2.54557798   -6.70736935
 H                 -3.28655519   -1.22257798   -5.42336935
 C                 -1.67555519   -3.87757798   -6.83636935
 H                 -1.29455519   -5.75757798   -5.87336935
 H                 -2.30555519   -1.86657798   -7.58436935
 H                 -1.18555519   -4.19657798   -7.90336935

 1 2 2.0 11 1.0 12 1.0
 2 3 1.5 13 1.0
 3 4 1.5 9 1.0
 4 5 1.5 14 1.0
 5 6 2.0 7 1.0
 6 15 1.0 19 1.5
 7 8 2.0 20 1.5
 8 9 2.0 16 1.0
 9 10 1.5
 10 11 2.0 17 1.0
 11 18 1.0
 12
 13
 14
 15
 16
 17
 18
 19 21 1.0 22 2.0
 20 21 2.0 23 1.0
 21 24 1.5
 22 25 2.0 26 1.0
 23
 24 27 1.5 28 1.0
 25 27 1.0 29 1.5
 26
 27 30 1.5
 28
 29 31 2.0 32 1.0
 30 33 2.0 34 1.0
 31 33 1.0 35 1.0
 32
 33 36 1.0
 34
 35
 36
 37 38 2.0 47 1.0 48 1.0
 38 39 1.5 49 1.0
 39 40 1.5 45 1.0
 40 41 1.5 50 1.0
 41 42 2.0 43 1.0
 42 51 1.0 55 1.5
 43 44 2.0 56 1.5
 44 45 2.0 52 1.0
 45 46 1.5
 46 47 2.0 53 1.0
 47 54 1.0
 48
 49
 50
 51
 52
 53
 54
 55 57 1.0 58 2.0
 56 57 2.0 59 1.0
 57 60 1.5
 58 61 2.0 62 1.0
 59
 60 63 1.5 64 1.0
 61 63 1.0 65 1.5
 62
 63 66 1.5
 64
 65 67 2.0 68 1.0
 66 69 2.0 70 1.0
 67 69 1.0 71 1.0
 68
 69 72 1.0
 70
 71
 72

