%chk=/oasis/projects/nsf/lhu120/cmw414/pent_stack/4_0A/dimer/dimer.chk
%nprocshared=24
%mem=110GB
#p b3lyp/6-311g(d,p) nosymm pop=full iop(3/33=1) punch=mo

c47

0 1
 C                 -8.71269653   -6.57702505    3.64379411
 C                 -8.68469653   -5.72102505    2.58779411
 C                 -8.06369653   -6.03902505    1.35279411
 C                 -8.04869653   -5.14002505    0.26779411
 C                 -7.39369653   -5.47302505   -0.95020589
 C                 -7.34469653   -4.60902505   -2.03220589
 C                 -6.79669653   -6.81702505   -1.08420589
 C                 -6.91169653   -7.66102505   -0.02620589
 C                 -7.43269653   -7.35702505    1.21879411
 C                 -7.55869653   -8.22602505    2.30979411
 C                 -8.07069653   -7.90902505    3.51479411
 H                 -9.20269653   -6.25802505    4.71079411
 H                 -9.09369653   -4.69702505    2.68079411
 H                 -8.48269653   -4.12702505    0.40379411
 H                 -7.81169653   -3.59102505   -1.88720589
 H                 -6.45369653   -8.67202505   -0.11820589
 H                 -7.10169653   -9.23202505    2.23079411
 H                 -8.08169653   -8.58802505    4.39179411
 C                 -6.74469653   -4.92802505   -3.27020589
 C                 -6.19669653   -7.13602505   -2.32220589
 C                 -6.14669653   -6.27302505   -3.40420589
 C                 -6.62969653   -4.08502505   -4.32820589
 H                 -5.72869653   -8.15502505   -2.46720589
 C                 -5.49269653   -6.60602505   -4.62220589
 C                 -6.10769653   -4.38902505   -5.57320589
 H                 -7.08769653   -3.07402505   -4.23620589
 C                 -5.47769653   -5.70702505   -5.70720589
 H                 -5.05869653   -7.61802505   -4.75820589
 C                 -5.98269653   -3.52002505   -6.66420589
 C                 -4.85669653   -6.02402505   -6.94220589
 C                 -5.47069653   -3.83702505   -7.86920589
 H                 -6.43969653   -2.51402505   -6.58520589
 C                 -4.82869653   -5.16902505   -7.99820589
 H                 -4.44769653   -7.04902505   -7.03520589
 H                 -5.45869653   -3.15802505   -8.74620589
 H                 -4.33869653   -5.48802505   -9.06520589
 C                 -5.20920915   -5.14208509    4.93472251
 C                 -5.18120915   -4.28608509    3.87872251
 C                 -4.56020915   -4.60408509    2.64372251
 C                 -4.54520915   -3.70508509    1.55872251
 C                 -3.89020915   -4.03808509    0.34072251
 C                 -3.84120915   -3.17408509   -0.74127749
 C                 -3.29320915   -5.38208509    0.20672251
 C                 -3.40820915   -6.22608509    1.26472251
 C                 -3.92920915   -5.92208509    2.50972251
 C                 -4.05520915   -6.79108509    3.60072251
 C                 -4.56720915   -6.47408509    4.80572251
 H                 -5.69920915   -4.82308509    6.00172251
 H                 -5.59020915   -3.26208509    3.97172251
 H                 -4.97920915   -2.69208509    1.69472251
 H                 -4.30820915   -2.15608509   -0.59627749
 H                 -2.95020915   -7.23708509    1.17272251
 H                 -3.59820915   -7.79708509    3.52172251
 H                 -4.57820915   -7.15308509    5.68272251
 C                 -3.24120915   -3.49308509   -1.97927749
 C                 -2.69320915   -5.70108509   -1.03127749
 C                 -2.64320915   -4.83808509   -2.11327749
 C                 -3.12620915   -2.65008509   -3.03727749
 H                 -2.22520915   -6.72008509   -1.17627749
 C                 -1.98920915   -5.17108509   -3.33127749
 C                 -2.60420915   -2.95408509   -4.28227749
 H                 -3.58420915   -1.63908509   -2.94527749
 C                 -1.97420915   -4.27208509   -4.41627749
 H                 -1.55520915   -6.18308509   -3.46727749
 C                 -2.47920915   -2.08508509   -5.37327749
 C                 -1.35320915   -4.58908509   -5.65127749
 C                 -1.96720915   -2.40208509   -6.57827749
 H                 -2.93620915   -1.07908509   -5.29427749
 C                 -1.32520915   -3.73408509   -6.70727749
 H                 -0.94420915   -5.61408509   -5.74427749
 H                 -1.95520915   -1.72308509   -7.45527749
 H                 -0.83520915   -4.05308509   -7.77427749

 1 2 2.0 11 1.0 12 1.0
 2 3 1.5 13 1.0
 3 4 1.5 9 1.0
 4 5 1.5 14 1.0
 5 6 2.0 7 1.0
 6 15 1.0 19 1.5
 7 8 2.0 20 1.5
 8 9 2.0 16 1.0
 9 10 1.5
 10 11 2.0 17 1.0
 11 18 1.0
 12
 13
 14
 15
 16
 17
 18
 19 21 1.0 22 2.0
 20 21 2.0 23 1.0
 21 24 1.5
 22 25 2.0 26 1.0
 23
 24 27 1.5 28 1.0
 25 27 1.0 29 1.5
 26
 27 30 1.5
 28
 29 31 2.0 32 1.0
 30 33 2.0 34 1.0
 31 33 1.0 35 1.0
 32
 33 36 1.0
 34
 35
 36
 37 38 2.0 47 1.0 48 1.0
 38 39 1.5 49 1.0
 39 40 1.5 45 1.0
 40 41 1.5 50 1.0
 41 42 2.0 43 1.0
 42 51 1.0 55 1.5
 43 44 2.0 56 1.5
 44 45 2.0 52 1.0
 45 46 1.5
 46 47 2.0 53 1.0
 47 54 1.0
 48
 49
 50
 51
 52
 53
 54
 55 57 1.0 58 2.0
 56 57 2.0 59 1.0
 57 60 1.5
 58 61 2.0 62 1.0
 59
 60 63 1.5 64 1.0
 61 63 1.0 65 1.5
 62
 63 66 1.5
 64
 65 67 2.0 68 1.0
 66 69 2.0 70 1.0
 67 69 1.0 71 1.0
 68
 69 72 1.0
 70
 71
 72


