%chk=/oasis/projects/nsf/lhu120/cmw414/rc_slip_x_new/n_1_0A/dimer/dimer.chk
%nprocshared=24
%mem=110GB
#p b3lyp/6-311g(d,p) nosymm pop=full iop(3/33=1) punch=mo

c47

2 1
 O                  1.86343256   -2.18814168   -0.63312396
 O                 -1.87688744    1.76594132   -0.63317696
 C                  3.69461456   -0.67140268   -0.87047896
 C                 -1.39648944   -0.60712468   -0.87219696
 C                  5.97175156   -1.62878468   -0.73581696
 C                  0.95630456   -1.17504168   -0.77241696
 C                  3.19421256   -1.96292068   -0.63793396
 C                  5.65376956    0.77013232   -1.23999596
 C                  1.38305156    0.18492932   -0.87218096
 C                 -3.20766744    1.54071032   -0.63799196
 C                 -2.81321944   -0.85705968   -1.03609996
 C                 -3.70805744    0.24918032   -0.87049696
 C                 -0.37497644   -1.59266368   -0.78251796
 C                  0.36153156    1.17047132   -0.78252296
 C                  5.10807156   -0.51188368   -0.94441996
 C                 -0.96975044    0.75284632   -0.77244796
 C                  5.39488456   -2.90675768   -0.47207296
 H                  6.04966056   -3.75780568   -0.31297796
 C                  4.74462556    1.84550032   -1.48258496
 H                  5.14791656    2.81613132   -1.75583896
 C                  3.38157356    1.68676032   -1.38711396
 H                  2.74968056    2.53497832   -1.59754396
 C                  4.02720956   -3.07643968   -0.43155996
 H                  3.57365556   -4.04439768   -0.25108496
 C                 -5.12151244    0.08963932   -0.94441896
 C                  2.79978656    0.43484332   -1.03611196
 C                  7.36964356   -1.42936968   -0.80567596
 H                  8.03205756   -2.27390668   -0.64047896
 C                  7.05237556    0.92132132   -1.30766596
 H                  7.47035056    1.89702532   -1.53701096
 C                 -0.64793744   -3.04866968   -0.59509396
 C                 -5.66719544   -1.19239768   -1.23993096
 C                  0.63446856    2.62647732   -0.59506596
 C                 -3.39498944   -2.10900768   -1.38701396
 H                 -2.76308144   -2.95723068   -1.59738596
 C                 -4.04067744    2.65422632   -0.43164996
 H                 -3.58713344    3.62219432   -0.25120396
 C                 -7.06580044   -1.34360768   -1.30758296
 H                 -7.48376544   -2.31932768   -1.53687896
 C                  7.89727656   -0.17032768   -1.08596396
 H                  8.97295756   -0.03707868   -1.13791896
 C                 -5.40835044    2.48452732   -0.47215796
 H                 -6.06313544    3.33557232   -0.31308796
 C                  1.19132356    3.07285032    0.61237504
 H                  1.43075056    2.35253132    1.38925504
 C                 -5.98520444    1.20653832   -0.73585396
 C                 -4.75804044   -2.26777068   -1.48246496
 H                 -5.16132144   -3.23842268   -1.75565596
 C                 -1.20495544   -3.49503768    0.61227204
 H                 -1.44447744   -2.77471768    1.38912204
 C                 -0.33428944   -3.98126668   -1.59421096
 H                  0.10494656   -3.63898068   -2.52632896
 C                 -7.38309444    1.00710232   -0.80569496
 H                 -8.04551744    1.85163832   -0.64052696
 C                 -1.46487044   -4.85334768    0.80924704
 H                 -1.90033044   -5.18805568    1.74603204
 C                 -1.16705344   -5.77762768   -0.19748196
 H                 -1.37357744   -6.83295368   -0.04661296
 C                  1.45120356    4.43116132    0.80938404
 H                  1.88654356    4.76587132    1.74622404
 C                  0.32092856    3.55907532   -1.59421596
 H                 -0.11819244    3.21678732   -2.52638696
 C                 -7.91071344   -0.25195768   -1.08592496
 H                 -8.98639244   -0.38522368   -1.13786596
 C                 -0.59829944   -5.33868768   -1.39838196
 H                 -0.36076744   -6.05187768   -2.18204296
 C                  1.15351056    5.35543932   -0.19738296
 H                  1.36000956    6.41076732   -0.04648696
 C                  0.58490756    4.91649632   -1.39835396
 H                  0.34746656    5.62968632   -2.18204196
 O                 11.26919117   -1.44108899    3.01759748
 O                  7.27275672    1.97218465    1.60237990
 C                 12.99825682    0.00466298    2.22374904
 C                  7.91501732   -0.28459669    2.24564836
 C                 15.33191165   -0.67861788    2.67899563
 C                 10.29861895   -0.61408102    2.52494879
 C                 12.58177972   -1.14282194    2.91824403
 C                 14.86221215    1.34096152    1.33333847
 C                 10.63483709    0.64053540    1.92956488
 C                  5.96032768    1.67038181    1.69278274
 C                  6.52112469   -0.67349148    2.19790143
 C                  5.55153827    0.35249678    1.95463907
 C                  8.99867310   -1.09638278    2.68097786
 C                  9.54821445    1.51803111    1.66107422
 C                 14.39886997    0.22228923    2.08340701
 C                  8.24793484    1.04311879    1.83587443
 C                 14.83772916   -1.80733368    3.39825618
 H                 15.54536240   -2.49397446    3.85224424
 C                 13.88715972    2.18776609    0.72178034
 H                 14.22893800    3.01592749    0.10796260
 C                 12.53642380    1.98219924    0.88140046
 H                 11.85265587    2.64897070    0.38048075
 C                 13.48402169   -2.04350641    3.51080263
 H                 13.09345231   -2.90661918    4.03779130
 C                 12.03414648    0.90929585    1.67233061
 C                 16.71425539   -0.42353960    2.52796735
 H                 17.42897127   -1.10138032    2.98517436
 C                 16.24846459    1.55213970    1.20202189
 H                 16.60382716    2.40210090    0.62705761
 C                  8.82086454   -2.39747610    3.39170227
 C                  3.69979796   -1.25458496    2.15760813
 C                  9.71981226    2.95647555    1.29910741
 C                  6.03045041   -2.00359768    2.33583988
 H                  6.72117830   -2.82455052    2.44528292
 C                  5.05126174    2.72227774    1.48418120
 H                  5.43586406    3.71763705    1.29295913
 C                  2.31578120   -1.51536323    2.16304033
 H                  1.96799882   -2.53338020    2.31132984
 C                 17.16086328    0.67817970    1.80071177
 H                 18.22590419    0.85637748    1.69357799
 C                  3.69889452    2.45640406    1.52135882
 H                  2.98600170    3.25961402    1.36336558
 C                 10.22549216    3.85117275    2.25359936
 H                 10.49980904    3.48377791    3.23823054
 C                  3.21343061    1.13442542    1.74993984
 C                  4.68286788   -2.27913777    2.31785084
 C                  8.27516920   -2.40741801    4.68374092
 H                  7.97511567   -1.47075716    5.14456840
 C                  9.21276408   -3.60748352    2.80124158
 H                  9.64339237   -3.60133293    1.80452026
 C                  1.83339581    0.82814307    1.77101080
 H                  1.11321887    1.62702477    1.62114772
 C                  8.10366944   -3.61346315    5.36741038
 H                  7.67622319   -3.61061352    6.36566014
 C                  8.47934390   -4.81962480    4.76696510
 H                  8.34156001   -5.75775841    5.29616025
 C                 10.39045486    5.20156835    1.93645903
 H                 10.78686011    5.88519035    2.68127089
 C                  9.36099857    3.43434568    0.03054919
 H                  8.96125224    2.74514374   -0.70710564
 C                  1.39605354   -0.47896033    1.97681460
 C                  9.03713842   -4.81340374    3.48355681
 H                  9.33484118   -5.74607996    3.01379717
 C                 10.04813376    5.67001126    0.66371859
 H                 10.18091242    6.71870877    0.41525940
 C                  9.53012908    4.78377556   -0.28736980
 H                  9.25838367    5.14219656   -1.27573911
 C                  4.15336882    0.08067470    1.95743000
 H                  4.35502685   -3.29236243    2.42175485
 H                  0.34757232   -0.69222137    1.98715226

 1 6 1.0 7 1.0
 2 10 1.0 16 1.0
 3 7 1.5 15 1.5 26 1.5
 4 11 1.0 13 1.5 16 1.5
 5 15 1.5 17 1.5 27 1.5
 6 9 1.5 13 1.5
 7 23 1.5
 8 15 1.5 19 1.5 29 1.5
 9 14 1.5 26 1.0
 10 12 1.5 36 1.5
 11 12 1.5 34 1.5
 12 25 1.5
 13 31 1.0
 14 16 1.5 33 1.0
 15
 16
 17 18 1.0 23 2.0
 18
 19 20 1.0 21 2.0
 20
 21 22 1.0 26 1.5
 22
 23 24 1.0
 24
 25 32 1.5 46 1.5
 26
 27 28 1.0 40 1.5
 28
 29 30 1.0 40 1.5
 30
 31 49 1.5 51 1.5
 32 38 1.5 47 1.5
 33 44 1.5 61 1.5
 34 35 1.0 47 2.0
 35
 36 37 1.0 42 2.0
 37
 38 39 1.0 63 1.5
 39
 40 41 1.0
 41
 42 43 1.0 46 1.5
 43
 44 45 1.0 59 1.5
 45
 46 53 1.5
 47 48 1.0
 48
 49 50 1.0 55 1.5
 50
 51 52 1.0 65 1.5
 52
 53 54 1.0 63 1.5
 54
 55 56 1.0 57 1.5
 56
 57 58 1.0 65 1.5
 58
 59 60 1.0 67 1.5
 60
 61 62 1.0 69 1.5
 62
 63 64 1.0
 64
 65 66 1.0
 66
 67 68 1.0 69 1.5
 68
 69 70 1.0
 70
 71 76 1.0 77 1.0
 72 80 1.0 86 1.0
 73 77 1.5 85 1.5 95 1.5
 74 81 1.0 83 1.5 86 1.5
 75 85 1.5 87 1.5 96 1.5
 76 79 1.5 83 1.5
 77 93 1.5
 78 85 1.5 89 1.5 98 1.5
 79 84 1.5 95 1.0
 80 82 1.5 105 1.5
 81 82 1.5 103 1.5
 82 140 1.5
 83 100 1.0
 84 86 1.5 102 1.0
 85
 86
 87 88 1.0 93 2.0
 88
 89 90 1.0 91 2.0
 90
 91 92 1.0 95 1.5
 92
 93 94 1.0
 94
 95
 96 97 1.0 109 1.5
 97
 98 99 1.0 109 1.5
 99
 100 118 1.5 120 1.5
 101 107 1.5 116 1.5 140 1.5
 102 113 1.5 130 1.5
 103 104 1.0 116 2.0
 104
 105 106 1.0 111 2.0
 106
 107 108 1.0 132 1.5
 108
 109 110 1.0
 110
 111 112 1.0 115 1.5
 112
 113 114 1.0 128 1.5
 114
 115 122 1.5 140 1.5
 116 117 1.0
 117
 118 119 1.0 124 1.5
 119
 120 121 1.0 134 1.5
 121
 122 123 1.0 132 1.5
 123
 124 125 1.0 126 1.5
 125
 126 127 1.0 134 1.5
 127
 128 129 1.0 136 1.5
 129
 130 131 1.0 138 1.5
 131
 132 133 1.0
 133
 134 135 1.0
 135
 136 137 1.0 138 1.5
 137
 138 139 1.0
 139
 140





