%chk=/oasis/projects/nsf/lhu120/cmw414/pent_stack/4_6A/dimer/dimer.chk
%nprocshared=24
%mem=110GB
#p b3lyp/6-311g(d,p) nosymm pop=full iop(3/33=1) punch=mo

c47

0 1
 C                 -8.71269653   -6.57702505    3.64379411
 C                 -8.68469653   -5.72102505    2.58779411
 C                 -8.06369653   -6.03902505    1.35279411
 C                 -8.04869653   -5.14002505    0.26779411
 C                 -7.39369653   -5.47302505   -0.95020589
 C                 -7.34469653   -4.60902505   -2.03220589
 C                 -6.79669653   -6.81702505   -1.08420589
 C                 -6.91169653   -7.66102505   -0.02620589
 C                 -7.43269653   -7.35702505    1.21879411
 C                 -7.55869653   -8.22602505    2.30979411
 C                 -8.07069653   -7.90902505    3.51479411
 H                 -9.20269653   -6.25802505    4.71079411
 H                 -9.09369653   -4.69702505    2.68079411
 H                 -8.48269653   -4.12702505    0.40379411
 H                 -7.81169653   -3.59102505   -1.88720589
 H                 -6.45369653   -8.67202505   -0.11820589
 H                 -7.10169653   -9.23202505    2.23079411
 H                 -8.08169653   -8.58802505    4.39179411
 C                 -6.74469653   -4.92802505   -3.27020589
 C                 -6.19669653   -7.13602505   -2.32220589
 C                 -6.14669653   -6.27302505   -3.40420589
 C                 -6.62969653   -4.08502505   -4.32820589
 H                 -5.72869653   -8.15502505   -2.46720589
 C                 -5.49269653   -6.60602505   -4.62220589
 C                 -6.10769653   -4.38902505   -5.57320589
 H                 -7.08769653   -3.07402505   -4.23620589
 C                 -5.47769653   -5.70702505   -5.70720589
 H                 -5.05869653   -7.61802505   -4.75820589
 C                 -5.98269653   -3.52002505   -6.66420589
 C                 -4.85669653   -6.02402505   -6.94220589
 C                 -5.47069653   -3.83702505   -7.86920589
 H                 -6.43969653   -2.51402505   -6.58520589
 C                 -4.82869653   -5.16902505   -7.99820589
 H                 -4.44769653   -7.04902505   -7.03520589
 H                 -5.45869653   -3.15802505   -8.74620589
 H                 -4.33869653   -5.48802505   -9.06520589
 C                 -4.68368559   -4.92684391    5.12836193
 C                 -4.65568559   -4.07084391    4.07236193
 C                 -4.03468559   -4.38884391    2.83736193
 C                 -4.01968559   -3.48984391    1.75236193
 C                 -3.36468559   -3.82284391    0.53436193
 C                 -3.31568559   -2.95884391   -0.54763807
 C                 -2.76768559   -5.16684391    0.40036193
 C                 -2.88268559   -6.01084391    1.45836193
 C                 -3.40368559   -5.70684391    2.70336193
 C                 -3.52968559   -6.57584391    3.79436193
 C                 -4.04168559   -6.25884391    4.99936193
 H                 -5.17368559   -4.60784391    6.19536193
 H                 -5.06468559   -3.04684391    4.16536193
 H                 -4.45368559   -2.47684391    1.88836193
 H                 -3.78268559   -1.94084391   -0.40263807
 H                 -2.42468559   -7.02184391    1.36636193
 H                 -3.07268559   -7.58184391    3.71536193
 H                 -4.05268559   -6.93784391    5.87636193
 C                 -2.71568559   -3.27784391   -1.78563807
 C                 -2.16768559   -5.48584391   -0.83763807
 C                 -2.11768559   -4.62284391   -1.91963807
 C                 -2.60068559   -2.43484391   -2.84363807
 H                 -1.69968559   -6.50484391   -0.98263807
 C                 -1.46368559   -4.95584391   -3.13763807
 C                 -2.07868559   -2.73884391   -4.08863807
 H                 -3.05868559   -1.42384391   -2.75163807
 C                 -1.44868559   -4.05684391   -4.22263807
 H                 -1.02968559   -5.96784391   -3.27363807
 C                 -1.95368559   -1.86984391   -5.17963807
 C                 -0.82768559   -4.37384391   -5.45763807
 C                 -1.44168559   -2.18684391   -6.38463807
 H                 -2.41068559   -0.86384391   -5.10063807
 C                 -0.79968559   -3.51884391   -6.51363807
 H                 -0.41868559   -5.39884391   -5.55063807
 H                 -1.42968559   -1.50784391   -7.26163807
 H                 -0.30968559   -3.83784391   -7.58063807

 1 2 2.0 11 1.0 12 1.0
 2 3 1.5 13 1.0
 3 4 1.5 9 1.0
 4 5 1.5 14 1.0
 5 6 2.0 7 1.0
 6 15 1.0 19 1.5
 7 8 2.0 20 1.5
 8 9 2.0 16 1.0
 9 10 1.5
 10 11 2.0 17 1.0
 11 18 1.0
 12
 13
 14
 15
 16
 17
 18
 19 21 1.0 22 2.0
 20 21 2.0 23 1.0
 21 24 1.5
 22 25 2.0 26 1.0
 23
 24 27 1.5 28 1.0
 25 27 1.0 29 1.5
 26
 27 30 1.5
 28
 29 31 2.0 32 1.0
 30 33 2.0 34 1.0
 31 33 1.0 35 1.0
 32
 33 36 1.0
 34
 35
 36
 37 38 2.0 47 1.0 48 1.0
 38 39 1.5 49 1.0
 39 40 1.5 45 1.0
 40 41 1.5 50 1.0
 41 42 2.0 43 1.0
 42 51 1.0 55 1.5
 43 44 2.0 56 1.5
 44 45 2.0 52 1.0
 45 46 1.5
 46 47 2.0 53 1.0
 47 54 1.0
 48
 49
 50
 51
 52
 53
 54
 55 57 1.0 58 2.0
 56 57 2.0 59 1.0
 57 60 1.5
 58 61 2.0 62 1.0
 59
 60 63 1.5 64 1.0
 61 63 1.0 65 1.5
 62
 63 66 1.5
 64
 65 67 2.0 68 1.0
 66 69 2.0 70 1.0
 67 69 1.0 71 1.0
 68
 69 72 1.0
 70
 71
 72


