%chk=/oasis/projects/nsf/lhu120/cmw414/pent_stack/2_6A/dimer/dimer.chk
%nprocshared=24
%mem=110GB
#p b3lyp/6-311g(d,p) nosymm pop=full iop(3/33=1) punch=mo

c47

0 1
 C                 -8.71269653   -6.57702505    3.64379411
 C                 -8.68469653   -5.72102505    2.58779411
 C                 -8.06369653   -6.03902505    1.35279411
 C                 -8.04869653   -5.14002505    0.26779411
 C                 -7.39369653   -5.47302505   -0.95020589
 C                 -7.34469653   -4.60902505   -2.03220589
 C                 -6.79669653   -6.81702505   -1.08420589
 C                 -6.91169653   -7.66102505   -0.02620589
 C                 -7.43269653   -7.35702505    1.21879411
 C                 -7.55869653   -8.22602505    2.30979411
 C                 -8.07069653   -7.90902505    3.51479411
 H                 -9.20269653   -6.25802505    4.71079411
 H                 -9.09369653   -4.69702505    2.68079411
 H                 -8.48269653   -4.12702505    0.40379411
 H                 -7.81169653   -3.59102505   -1.88720589
 H                 -6.45369653   -8.67202505   -0.11820589
 H                 -7.10169653   -9.23202505    2.23079411
 H                 -8.08169653   -8.58802505    4.39179411
 C                 -6.74469653   -4.92802505   -3.27020589
 C                 -6.19669653   -7.13602505   -2.32220589
 C                 -6.14669653   -6.27302505   -3.40420589
 C                 -6.62969653   -4.08502505   -4.32820589
 H                 -5.72869653   -8.15502505   -2.46720589
 C                 -5.49269653   -6.60602505   -4.62220589
 C                 -6.10769653   -4.38902505   -5.57320589
 H                 -7.08769653   -3.07402505   -4.23620589
 C                 -5.47769653   -5.70702505   -5.70720589
 H                 -5.05869653   -7.61802505   -4.75820589
 C                 -5.98269653   -3.52002505   -6.66420589
 C                 -4.85669653   -6.02402505   -6.94220589
 C                 -5.47069653   -3.83702505   -7.86920589
 H                 -6.43969653   -2.51402505   -6.58520589
 C                 -4.82869653   -5.16902505   -7.99820589
 H                 -4.44769653   -7.04902505   -7.03520589
 H                 -5.45869653   -3.15802505   -8.74620589
 H                 -4.33869653   -5.48802505   -9.06520589
 C                 -6.43543078   -5.64431451    4.48289718
 C                 -6.40743078   -4.78831451    3.42689718
 C                 -5.78643078   -5.10631451    2.19189718
 C                 -5.77143078   -4.20731451    1.10689718
 C                 -5.11643078   -4.54031451   -0.11110282
 C                 -5.06743078   -3.67631451   -1.19310282
 C                 -4.51943078   -5.88431451   -0.24510282
 C                 -4.63443078   -6.72831451    0.81289718
 C                 -5.15543078   -6.42431451    2.05789718
 C                 -5.28143078   -7.29331451    3.14889718
 C                 -5.79343078   -6.97631451    4.35389718
 H                 -6.92543078   -5.32531451    5.54989718
 H                 -6.81643078   -3.76431451    3.51989718
 H                 -6.20543078   -3.19431451    1.24289718
 H                 -5.53443078   -2.65831451   -1.04810282
 H                 -4.17643078   -7.73931451    0.72089718
 H                 -4.82443078   -8.29931451    3.06989718
 H                 -5.80443078   -7.65531451    5.23089718
 C                 -4.46743078   -3.99531451   -2.43110282
 C                 -3.91943078   -6.20331451   -1.48310282
 C                 -3.86943078   -5.34031451   -2.56510282
 C                 -4.35243078   -3.15231451   -3.48910282
 H                 -3.45143078   -7.22231451   -1.62810282
 C                 -3.21543078   -5.67331451   -3.78310282
 C                 -3.83043078   -3.45631451   -4.73410282
 H                 -4.81043078   -2.14131451   -3.39710282
 C                 -3.20043078   -4.77431451   -4.86810282
 H                 -2.78143078   -6.68531451   -3.91910282
 C                 -3.70543078   -2.58731451   -5.82510282
 C                 -2.57943078   -5.09131451   -6.10310282
 C                 -3.19343078   -2.90431451   -7.03010282
 H                 -4.16243078   -1.58131451   -5.74610282
 C                 -2.55143078   -4.23631451   -7.15910282
 H                 -2.17043078   -6.11631451   -6.19610282
 H                 -3.18143078   -2.22531451   -7.90710282
 H                 -2.06143078   -4.55531451   -8.22610282

 1 2 2.0 11 1.0 12 1.0
 2 3 1.5 13 1.0
 3 4 1.5 9 1.0
 4 5 1.5 14 1.0
 5 6 2.0 7 1.0
 6 15 1.0 19 1.5
 7 8 2.0 20 1.5
 8 9 2.0 16 1.0
 9 10 1.5
 10 11 2.0 17 1.0
 11 18 1.0
 12
 13
 14
 15
 16
 17
 18
 19 21 1.0 22 2.0
 20 21 2.0 23 1.0
 21 24 1.5
 22 25 2.0 26 1.0
 23
 24 27 1.5 28 1.0
 25 27 1.0 29 1.5
 26
 27 30 1.5
 28
 29 31 2.0 32 1.0
 30 33 2.0 34 1.0
 31 33 1.0 35 1.0
 32
 33 36 1.0
 34
 35
 36
 37 38 2.0 47 1.0 48 1.0
 38 39 1.5 49 1.0
 39 40 1.5 45 1.0
 40 41 1.5 50 1.0
 41 42 2.0 43 1.0
 42 51 1.0 55 1.5
 43 44 2.0 56 1.5
 44 45 2.0 52 1.0
 45 46 1.5
 46 47 2.0 53 1.0
 47 54 1.0
 48
 49
 50
 51
 52
 53
 54
 55 57 1.0 58 2.0
 56 57 2.0 59 1.0
 57 60 1.5
 58 61 2.0 62 1.0
 59
 60 63 1.5 64 1.0
 61 63 1.0 65 1.5
 62
 63 66 1.5
 64
 65 67 2.0 68 1.0
 66 69 2.0 70 1.0
 67 69 1.0 71 1.0
 68
 69 72 1.0
 70
 71
 72


