%chk=/oasis/projects/nsf/lhu120/cmw414/rc_slip_x_new/1_4A/dimer/dimer.chk
%mem=110GB
#p b3lyp/6-311g(d,p) nosymm pop=full iop(3/33=1) punch=mo

c47

2 1
 O                  1.86343256   -2.18814168   -0.63312396
 O                 -1.87688744    1.76594132   -0.63317696
 C                  3.69461456   -0.67140268   -0.87047896
 C                 -1.39648944   -0.60712468   -0.87219696
 C                  5.97175156   -1.62878468   -0.73581696
 C                  0.95630456   -1.17504168   -0.77241696
 C                  3.19421256   -1.96292068   -0.63793396
 C                  5.65376956    0.77013232   -1.23999596
 C                  1.38305156    0.18492932   -0.87218096
 C                 -3.20766744    1.54071032   -0.63799196
 C                 -2.81321944   -0.85705968   -1.03609996
 C                 -3.70805744    0.24918032   -0.87049696
 C                 -0.37497644   -1.59266368   -0.78251796
 C                  0.36153156    1.17047132   -0.78252296
 C                  5.10807156   -0.51188368   -0.94441996
 C                 -0.96975044    0.75284632   -0.77244796
 C                  5.39488456   -2.90675768   -0.47207296
 H                  6.04966056   -3.75780568   -0.31297796
 C                  4.74462556    1.84550032   -1.48258496
 H                  5.14791656    2.81613132   -1.75583896
 C                  3.38157356    1.68676032   -1.38711396
 H                  2.74968056    2.53497832   -1.59754396
 C                  4.02720956   -3.07643968   -0.43155996
 H                  3.57365556   -4.04439768   -0.25108496
 C                 -5.12151244    0.08963932   -0.94441896
 C                  2.79978656    0.43484332   -1.03611196
 C                  7.36964356   -1.42936968   -0.80567596
 H                  8.03205756   -2.27390668   -0.64047896
 C                  7.05237556    0.92132132   -1.30766596
 H                  7.47035056    1.89702532   -1.53701096
 C                 -0.64793744   -3.04866968   -0.59509396
 C                 -5.66719544   -1.19239768   -1.23993096
 C                  0.63446856    2.62647732   -0.59506596
 C                 -3.39498944   -2.10900768   -1.38701396
 H                 -2.76308144   -2.95723068   -1.59738596
 C                 -4.04067744    2.65422632   -0.43164996
 H                 -3.58713344    3.62219432   -0.25120396
 C                 -7.06580044   -1.34360768   -1.30758296
 H                 -7.48376544   -2.31932768   -1.53687896
 C                  7.89727656   -0.17032768   -1.08596396
 H                  8.97295756   -0.03707868   -1.13791896
 C                 -5.40835044    2.48452732   -0.47215796
 H                 -6.06313544    3.33557232   -0.31308796
 C                  1.19132356    3.07285032    0.61237504
 H                  1.43075056    2.35253132    1.38925504
 C                 -5.98520444    1.20653832   -0.73585396
 C                 -4.75804044   -2.26777068   -1.48246496
 H                 -5.16132144   -3.23842268   -1.75565596
 C                 -1.20495544   -3.49503768    0.61227204
 H                 -1.44447744   -2.77471768    1.38912204
 C                 -0.33428944   -3.98126668   -1.59421096
 H                  0.10494656   -3.63898068   -2.52632896
 C                 -7.38309444    1.00710232   -0.80569496
 H                 -8.04551744    1.85163832   -0.64052696
 C                 -1.46487044   -4.85334768    0.80924704
 H                 -1.90033044   -5.18805568    1.74603204
 C                 -1.16705344   -5.77762768   -0.19748196
 H                 -1.37357744   -6.83295368   -0.04661296
 C                  1.45120356    4.43116132    0.80938404
 H                  1.88654356    4.76587132    1.74622404
 C                  0.32092856    3.55907532   -1.59421596
 H                 -0.11819244    3.21678732   -2.52638696
 C                 -7.91071344   -0.25195768   -1.08592496
 H                 -8.98639244   -0.38522368   -1.13786596
 C                 -0.59829944   -5.33868768   -1.39838196
 H                 -0.36076744   -6.05187768   -2.18204296
 C                  1.15351056    5.35543932   -0.19738296
 H                  1.36000956    6.41076732   -0.04648696
 C                  0.58490756    4.91649632   -1.39835396
 H                  0.34746656    5.62968632   -2.18204196
 O                 13.62105175   -0.96322404    2.99767423
 O                  9.62461730    2.45004960    1.58245665
 C                 15.35011740    0.48252793    2.20382579
 C                 10.26687790    0.19326826    2.22572511
 C                 17.68377223   -0.20075293    2.65907238
 C                 12.65047953   -0.13621607    2.50502554
 C                 14.93364030   -0.66495699    2.89832078
 C                 17.21407273    1.81882647    1.31341522
 C                 12.98669767    1.11840035    1.90964163
 C                  8.31218826    2.14824676    1.67285949
 C                  8.87298527   -0.19562653    2.17797818
 C                  7.90339885    0.83036173    1.93471582
 C                 11.35053368   -0.61851783    2.66105461
 C                 11.90007503    1.99589606    1.64115097
 C                 16.75073055    0.70015418    2.06348376
 C                 10.59979542    1.52098374    1.81595118
 C                 17.18958974   -1.32946873    3.37833293
 H                 17.89722298   -2.01610951    3.83232099
 C                 16.23902030    2.66563104    0.70185709
 H                 16.58079858    3.49379244    0.08803935
 C                 14.88828438    2.46006419    0.86147721
 H                 14.20451645    3.12683565    0.36055750
 C                 15.83588227   -1.56564146    3.49087938
 H                 15.44531289   -2.42875423    4.01786805
 C                 14.38600706    1.38716080    1.65240736
 C                 19.06611597    0.05432535    2.50804410
 H                 19.78083185   -0.62351537    2.96525111
 C                 18.60032517    2.03000465    1.18209864
 H                 18.95568774    2.87996585    0.60713436
 C                 11.17272512   -1.91961115    3.37177902
 C                  6.05165854   -0.77672001    2.13768488
 C                 12.07167284    3.43434050    1.27918416
 C                  8.38231099   -1.52573273    2.31591663
 H                  9.07303888   -2.34668557    2.42535967
 C                  7.40312232    3.20014269    1.46425795
 H                  7.78772464    4.19550200    1.27303588
 C                  4.66764178   -1.03749828    2.14311708
 H                  4.31985940   -2.05551525    2.29140659
 C                 19.51272386    1.15604465    1.78078852
 H                 20.57776477    1.33424243    1.67365474
 C                  6.05075510    2.93426901    1.50143557
 H                  5.33786228    3.73747897    1.34344233
 C                 12.57735274    4.32903770    2.23367611
 H                 12.85166962    3.96164286    3.21830729
 C                  5.56529119    1.61229037    1.73001659
 C                  7.03472846   -1.80127282    2.29792759
 C                 10.62702978   -1.92955306    4.66381767
 H                 10.32697625   -0.99289221    5.12464515
 C                 11.56462466   -3.12961857    2.78131833
 H                 11.99525295   -3.12346798    1.78459701
 C                  4.18525639    1.30600802    1.75108755
 H                  3.46507945    2.10488972    1.60122447
 C                 10.45553002   -3.13559820    5.34748713
 H                 10.02808377   -3.13274857    6.34573689
 C                 10.83120448   -4.34175985    4.74704185
 H                 10.69342059   -5.27989346    5.27623700
 C                 12.74231544    5.67943330    1.91653578
 H                 13.13872069    6.36305530    2.66134764
 C                 11.71285915    3.91221063    0.01062594
 H                 11.31311282    3.22300869   -0.72702889
 C                  3.74791412   -0.00109538    1.95689135
 C                 11.38899900   -4.33553879    3.46363356
 H                 11.68670176   -5.26821501    2.99387392
 C                 12.39999434    6.14787621    0.64379534
 H                 12.53277300    7.19657372    0.39533615
 C                 11.88198966    5.26164051   -0.30729305
 H                 11.61024425    5.62006151   -1.29566236
 C                  6.50522940    0.55853965    1.93750675
 H                  6.70688743   -2.81449748    2.40183160
 H                  2.69943290   -0.21435642    1.96722901

 1 6 1.0 7 1.0
 2 10 1.0 16 1.0
 3 7 1.5 15 1.5 26 1.5
 4 11 1.0 13 1.5 16 1.5
 5 15 1.5 17 1.5 27 1.5
 6 9 1.5 13 1.5
 7 23 1.5
 8 15 1.5 19 1.5 29 1.5
 9 14 1.5 26 1.0
 10 12 1.5 36 1.5
 11 12 1.5 34 1.5
 12 25 1.5
 13 31 1.0
 14 16 1.5 33 1.0
 15
 16
 17 18 1.0 23 2.0
 18
 19 20 1.0 21 2.0
 20
 21 22 1.0 26 1.5
 22
 23 24 1.0
 24
 25 32 1.5 46 1.5
 26
 27 28 1.0 40 1.5
 28
 29 30 1.0 40 1.5
 30
 31 49 1.5 51 1.5
 32 38 1.5 47 1.5
 33 44 1.5 61 1.5
 34 35 1.0 47 2.0
 35
 36 37 1.0 42 2.0
 37
 38 39 1.0 63 1.5
 39
 40 41 1.0
 41
 42 43 1.0 46 1.5
 43
 44 45 1.0 59 1.5
 45
 46 53 1.5
 47 48 1.0
 48
 49 50 1.0 55 1.5
 50
 51 52 1.0 65 1.5
 52
 53 54 1.0 63 1.5
 54
 55 56 1.0 57 1.5
 56
 57 58 1.0 65 1.5
 58
 59 60 1.0 67 1.5
 60
 61 62 1.0 69 1.5
 62
 63 64 1.0
 64
 65 66 1.0
 66
 67 68 1.0 69 1.5
 68
 69 70 1.0
 70
 71 76 1.0 77 1.0
 72 80 1.0 86 1.0
 73 77 1.5 85 1.5 95 1.5
 74 81 1.0 83 1.5 86 1.5
 75 85 1.5 87 1.5 96 1.5
 76 79 1.5 83 1.5
 77 93 1.5
 78 85 1.5 89 1.5 98 1.5
 79 84 1.5 95 1.0
 80 82 1.5 105 1.5
 81 82 1.5 103 1.5
 82 140 1.5
 83 100 1.0
 84 86 1.5 102 1.0
 85
 86
 87 88 1.0 93 2.0
 88
 89 90 1.0 91 2.0
 90
 91 92 1.0 95 1.5
 92
 93 94 1.0
 94
 95
 96 97 1.0 109 1.5
 97
 98 99 1.0 109 1.5
 99
 100 118 1.5 120 1.5
 101 107 1.5 116 1.5 140 1.5
 102 113 1.5 130 1.5
 103 104 1.0 116 2.0
 104
 105 106 1.0 111 2.0
 106
 107 108 1.0 132 1.5
 108
 109 110 1.0
 110
 111 112 1.0 115 1.5
 112
 113 114 1.0 128 1.5
 114
 115 122 1.5 140 1.5
 116 117 1.0
 117
 118 119 1.0 124 1.5
 119
 120 121 1.0 134 1.5
 121
 122 123 1.0 132 1.5
 123
 124 125 1.0 126 1.5
 125
 126 127 1.0 134 1.5
 127
 128 129 1.0 136 1.5
 129
 130 131 1.0 138 1.5
 131
 132 133 1.0
 133
 134 135 1.0
 135
 136 137 1.0 138 1.5
 137
 138 139 1.0
 139
 140





















