%chk=/oasis/projects/nsf/lhu120/cmw414/rc_slip_x_new/0_2A/dimer/dimer.chk
%mem=110GB
#p b3lyp/6-311g(d,p) nosymm pop=full iop(3/33=1) punch=mo

c47

2 1
 O                  1.86343256   -2.18814168   -0.63312396
 O                 -1.87688744    1.76594132   -0.63317696
 C                  3.69461456   -0.67140268   -0.87047896
 C                 -1.39648944   -0.60712468   -0.87219696
 C                  5.97175156   -1.62878468   -0.73581696
 C                  0.95630456   -1.17504168   -0.77241696
 C                  3.19421256   -1.96292068   -0.63793396
 C                  5.65376956    0.77013232   -1.23999596
 C                  1.38305156    0.18492932   -0.87218096
 C                 -3.20766744    1.54071032   -0.63799196
 C                 -2.81321944   -0.85705968   -1.03609996
 C                 -3.70805744    0.24918032   -0.87049696
 C                 -0.37497644   -1.59266368   -0.78251796
 C                  0.36153156    1.17047132   -0.78252296
 C                  5.10807156   -0.51188368   -0.94441996
 C                 -0.96975044    0.75284632   -0.77244796
 C                  5.39488456   -2.90675768   -0.47207296
 H                  6.04966056   -3.75780568   -0.31297796
 C                  4.74462556    1.84550032   -1.48258496
 H                  5.14791656    2.81613132   -1.75583896
 C                  3.38157356    1.68676032   -1.38711396
 H                  2.74968056    2.53497832   -1.59754396
 C                  4.02720956   -3.07643968   -0.43155996
 H                  3.57365556   -4.04439768   -0.25108496
 C                 -5.12151244    0.08963932   -0.94441896
 C                  2.79978656    0.43484332   -1.03611196
 C                  7.36964356   -1.42936968   -0.80567596
 H                  8.03205756   -2.27390668   -0.64047896
 C                  7.05237556    0.92132132   -1.30766596
 H                  7.47035056    1.89702532   -1.53701096
 C                 -0.64793744   -3.04866968   -0.59509396
 C                 -5.66719544   -1.19239768   -1.23993096
 C                  0.63446856    2.62647732   -0.59506596
 C                 -3.39498944   -2.10900768   -1.38701396
 H                 -2.76308144   -2.95723068   -1.59738596
 C                 -4.04067744    2.65422632   -0.43164996
 H                 -3.58713344    3.62219432   -0.25120396
 C                 -7.06580044   -1.34360768   -1.30758296
 H                 -7.48376544   -2.31932768   -1.53687896
 C                  7.89727656   -0.17032768   -1.08596396
 H                  8.97295756   -0.03707868   -1.13791896
 C                 -5.40835044    2.48452732   -0.47215796
 H                 -6.06313544    3.33557232   -0.31308796
 C                  1.19132356    3.07285032    0.61237504
 H                  1.43075056    2.35253132    1.38925504
 C                 -5.98520444    1.20653832   -0.73585396
 C                 -4.75804044   -2.26777068   -1.48246496
 H                 -5.16132144   -3.23842268   -1.75565596
 C                 -1.20495544   -3.49503768    0.61227204
 H                 -1.44447744   -2.77471768    1.38912204
 C                 -0.33428944   -3.98126668   -1.59421096
 H                  0.10494656   -3.63898068   -2.52632896
 C                 -7.38309444    1.00710232   -0.80569496
 H                 -8.04551744    1.85163832   -0.64052696
 C                 -1.46487044   -4.85334768    0.80924704
 H                 -1.90033044   -5.18805568    1.74603204
 C                 -1.16705344   -5.77762768   -0.19748196
 H                 -1.37357744   -6.83295368   -0.04661296
 C                  1.45120356    4.43116132    0.80938404
 H                  1.88654356    4.76587132    1.74622404
 C                  0.32092856    3.55907532   -1.59421596
 H                 -0.11819244    3.21678732   -2.52638696
 C                 -7.91071344   -0.25195768   -1.08592496
 H                 -8.98639244   -0.38522368   -1.13786596
 C                 -0.59829944   -5.33868768   -1.39838196
 H                 -0.36076744   -6.05187768   -2.18204296
 C                  1.15351056    5.35543932   -0.19738296
 H                  1.36000956    6.41076732   -0.04648696
 C                  0.58490756    4.91649632   -1.39835396
 H                  0.34746656    5.62968632   -2.18204196
 O                 12.44512146   -1.20215652    3.00763585
 O                  8.44868701    2.21111712    1.59241827
 C                 14.17418711    0.24359545    2.21378741
 C                  9.09094761   -0.04566422    2.23568673
 C                 16.50784194   -0.43968541    2.66903400
 C                 11.47454924   -0.37514855    2.51498716
 C                 13.75771001   -0.90388947    2.90828240
 C                 16.03814244    1.57989399    1.32337684
 C                 11.81076738    0.87946787    1.91960325
 C                  7.13625797    1.90931428    1.68282111
 C                  7.69705498   -0.43455901    2.18793980
 C                  6.72746856    0.59142925    1.94467744
 C                 10.17460339   -0.85745031    2.67101623
 C                 10.72414474    1.75696358    1.65111259
 C                 15.57480026    0.46122170    2.07344538
 C                  9.42386513    1.28205126    1.82591280
 C                 16.01365945   -1.56840121    3.38829455
 H                 16.72129269   -2.25504199    3.84228261
 C                 15.06309001    2.42669856    0.71181871
 H                 15.40486829    3.25485996    0.09800097
 C                 13.71235409    2.22113171    0.87143883
 H                 13.02858616    2.88790317    0.37051912
 C                 14.65995198   -1.80457394    3.50084100
 H                 14.26938260   -2.66768671    4.02782967
 C                 13.21007677    1.14822832    1.66236898
 C                 17.89018568   -0.18460713    2.51800572
 H                 18.60490156   -0.86244785    2.97521273
 C                 17.42439488    1.79107217    1.19206026
 H                 17.77975745    2.64103337    0.61709598
 C                  9.99679483   -2.15854363    3.38174064
 C                  4.87572825   -1.01565249    2.14764650
 C                 10.89574255    3.19540802    1.28914578
 C                  7.20638070   -1.76466521    2.32587825
 H                  7.89710859   -2.58561805    2.43532129
 C                  6.22719203    2.96121021    1.47421957
 H                  6.61179435    3.95656952    1.28299750
 C                  3.49171149   -1.27643076    2.15307870
 H                  3.14392911   -2.29444773    2.30136821
 C                 18.33679357    0.91711217    1.79075014
 H                 19.40183448    1.09530995    1.68361636
 C                  4.87482481    2.69533653    1.51139719
 H                  4.16193199    3.49854649    1.35340395
 C                 11.40142245    4.09010522    2.24363773
 H                 11.67573933    3.72271038    3.22826891
 C                  4.38936090    1.37335789    1.73997821
 C                  5.85879817   -2.04020530    2.30788921
 C                  9.45109949   -2.16848554    4.67377929
 H                  9.15104596   -1.23182469    5.13460677
 C                 10.38869437   -3.36855105    2.79127995
 H                 10.81932266   -3.36240046    1.79455863
 C                  3.00932610    1.06707554    1.76104917
 H                  2.28914916    1.86595724    1.61118609
 C                  9.27959973   -3.37453068    5.35744875
 H                  8.85215348   -3.37168105    6.35569851
 C                  9.65527419   -4.58069233    4.75700347
 H                  9.51749030   -5.51882594    5.28619862
 C                 11.56638515    5.44050082    1.92649740
 H                 11.96279040    6.12412282    2.67130926
 C                 10.53692886    3.67327815    0.02058756
 H                 10.13718253    2.98407621   -0.71706727
 C                  2.57198383   -0.24002786    1.96685297
 C                 10.21306871   -4.57447127    3.47359518
 H                 10.51077147   -5.50714749    3.00383554
 C                 11.22406405    5.90894373    0.65375696
 H                 11.35684271    6.95764124    0.40529777
 C                 10.70605937    5.02270803   -0.29733143
 H                 10.43431396    5.38112903   -1.28570074
 C                  5.32929911    0.31960717    1.94746837
 H                  5.53095714   -3.05342996    2.41179322
 H                  1.52350261   -0.45328890    1.97719063

 1 6 1.0 7 1.0
 2 10 1.0 16 1.0
 3 7 1.5 15 1.5 26 1.5
 4 11 1.0 13 1.5 16 1.5
 5 15 1.5 17 1.5 27 1.5
 6 9 1.5 13 1.5
 7 23 1.5
 8 15 1.5 19 1.5 29 1.5
 9 14 1.5 26 1.0
 10 12 1.5 36 1.5
 11 12 1.5 34 1.5
 12 25 1.5
 13 31 1.0
 14 16 1.5 33 1.0
 15
 16
 17 18 1.0 23 2.0
 18
 19 20 1.0 21 2.0
 20
 21 22 1.0 26 1.5
 22
 23 24 1.0
 24
 25 32 1.5 46 1.5
 26
 27 28 1.0 40 1.5
 28
 29 30 1.0 40 1.5
 30
 31 49 1.5 51 1.5
 32 38 1.5 47 1.5
 33 44 1.5 61 1.5
 34 35 1.0 47 2.0
 35
 36 37 1.0 42 2.0
 37
 38 39 1.0 63 1.5
 39
 40 41 1.0
 41
 42 43 1.0 46 1.5
 43
 44 45 1.0 59 1.5
 45
 46 53 1.5
 47 48 1.0
 48
 49 50 1.0 55 1.5
 50
 51 52 1.0 65 1.5
 52
 53 54 1.0 63 1.5
 54
 55 56 1.0 57 1.5
 56
 57 58 1.0 65 1.5
 58
 59 60 1.0 67 1.5
 60
 61 62 1.0 69 1.5
 62
 63 64 1.0
 64
 65 66 1.0
 66
 67 68 1.0 69 1.5
 68
 69 70 1.0
 70
 71 76 1.0 77 1.0
 72 80 1.0 86 1.0
 73 77 1.5 85 1.5 95 1.5
 74 81 1.0 83 1.5 86 1.5
 75 85 1.5 87 1.5 96 1.5
 76 79 1.5 83 1.5
 77 93 1.5
 78 85 1.5 89 1.5 98 1.5
 79 84 1.5 95 1.0
 80 82 1.5 105 1.5
 81 82 1.5 103 1.5
 82 140 1.5
 83 100 1.0
 84 86 1.5 102 1.0
 85
 86
 87 88 1.0 93 2.0
 88
 89 90 1.0 91 2.0
 90
 91 92 1.0 95 1.5
 92
 93 94 1.0
 94
 95
 96 97 1.0 109 1.5
 97
 98 99 1.0 109 1.5
 99
 100 118 1.5 120 1.5
 101 107 1.5 116 1.5 140 1.5
 102 113 1.5 130 1.5
 103 104 1.0 116 2.0
 104
 105 106 1.0 111 2.0
 106
 107 108 1.0 132 1.5
 108
 109 110 1.0
 110
 111 112 1.0 115 1.5
 112
 113 114 1.0 128 1.5
 114
 115 122 1.5 140 1.5
 116 117 1.0
 117
 118 119 1.0 124 1.5
 119
 120 121 1.0 134 1.5
 121
 122 123 1.0 132 1.5
 123
 124 125 1.0 126 1.5
 125
 126 127 1.0 134 1.5
 127
 128 129 1.0 136 1.5
 129
 130 131 1.0 138 1.5
 131
 132 133 1.0
 133
 134 135 1.0
 135
 136 137 1.0 138 1.5
 137
 138 139 1.0
 139
 140









