%chk=/oasis/projects/nsf/lhu120/cmw414/rc_slip_x_new/0_1A/dimer/dimer.chk
%mem=110GB
#p b3lyp/6-311g(d,p) nosymm pop=full iop(3/33=1) punch=mo

c47

2 1
 O                  1.86343256   -2.18814168   -0.63312396
 O                 -1.87688744    1.76594132   -0.63317696
 C                  3.69461456   -0.67140268   -0.87047896
 C                 -1.39648944   -0.60712468   -0.87219696
 C                  5.97175156   -1.62878468   -0.73581696
 C                  0.95630456   -1.17504168   -0.77241696
 C                  3.19421256   -1.96292068   -0.63793396
 C                  5.65376956    0.77013232   -1.23999596
 C                  1.38305156    0.18492932   -0.87218096
 C                 -3.20766744    1.54071032   -0.63799196
 C                 -2.81321944   -0.85705968   -1.03609996
 C                 -3.70805744    0.24918032   -0.87049696
 C                 -0.37497644   -1.59266368   -0.78251796
 C                  0.36153156    1.17047132   -0.78252296
 C                  5.10807156   -0.51188368   -0.94441996
 C                 -0.96975044    0.75284632   -0.77244796
 C                  5.39488456   -2.90675768   -0.47207296
 H                  6.04966056   -3.75780568   -0.31297796
 C                  4.74462556    1.84550032   -1.48258496
 H                  5.14791656    2.81613132   -1.75583896
 C                  3.38157356    1.68676032   -1.38711396
 H                  2.74968056    2.53497832   -1.59754396
 C                  4.02720956   -3.07643968   -0.43155996
 H                  3.57365556   -4.04439768   -0.25108496
 C                 -5.12151244    0.08963932   -0.94441896
 C                  2.79978656    0.43484332   -1.03611196
 C                  7.36964356   -1.42936968   -0.80567596
 H                  8.03205756   -2.27390668   -0.64047896
 C                  7.05237556    0.92132132   -1.30766596
 H                  7.47035056    1.89702532   -1.53701096
 C                 -0.64793744   -3.04866968   -0.59509396
 C                 -5.66719544   -1.19239768   -1.23993096
 C                  0.63446856    2.62647732   -0.59506596
 C                 -3.39498944   -2.10900768   -1.38701396
 H                 -2.76308144   -2.95723068   -1.59738596
 C                 -4.04067744    2.65422632   -0.43164996
 H                 -3.58713344    3.62219432   -0.25120396
 C                 -7.06580044   -1.34360768   -1.30758296
 H                 -7.48376544   -2.31932768   -1.53687896
 C                  7.89727656   -0.17032768   -1.08596396
 H                  8.97295756   -0.03707868   -1.13791896
 C                 -5.40835044    2.48452732   -0.47215796
 H                 -6.06313544    3.33557232   -0.31308796
 C                  1.19132356    3.07285032    0.61237504
 H                  1.43075056    2.35253132    1.38925504
 C                 -5.98520444    1.20653832   -0.73585396
 C                 -4.75804044   -2.26777068   -1.48246496
 H                 -5.16132144   -3.23842268   -1.75565596
 C                 -1.20495544   -3.49503768    0.61227204
 H                 -1.44447744   -2.77471768    1.38912204
 C                 -0.33428944   -3.98126668   -1.59421096
 H                  0.10494656   -3.63898068   -2.52632896
 C                 -7.38309444    1.00710232   -0.80569496
 H                 -8.04551744    1.85163832   -0.64052696
 C                 -1.46487044   -4.85334768    0.80924704
 H                 -1.90033044   -5.18805568    1.74603204
 C                 -1.16705344   -5.77762768   -0.19748196
 H                 -1.37357744   -6.83295368   -0.04661296
 C                  1.45120356    4.43116132    0.80938404
 H                  1.88654356    4.76587132    1.74622404
 C                  0.32092856    3.55907532   -1.59421596
 H                 -0.11819244    3.21678732   -2.52638696
 C                 -7.91071344   -0.25195768   -1.08592496
 H                 -8.98639244   -0.38522368   -1.13786596
 C                 -0.59829944   -5.33868768   -1.39838196
 H                 -0.36076744   -6.05187768   -2.18204296
 C                  1.15351056    5.35543932   -0.19738296
 H                  1.36000956    6.41076732   -0.04648696
 C                  0.58490756    4.91649632   -1.39835396
 H                  0.34746656    5.62968632   -2.18204196
 O                 12.34712727   -1.22206756    3.00846599
 O                  8.35069282    2.19120608    1.59324841
 C                 14.07619292    0.22368441    2.21461755
 C                  8.99295342   -0.06557526    2.23651687
 C                 16.40984775   -0.45959645    2.66986414
 C                 11.37655505   -0.39505959    2.51581730
 C                 13.65971582   -0.92380051    2.90911254
 C                 15.94014825    1.55998295    1.32420698
 C                 11.71277319    0.85955683    1.92043339
 C                  7.03826378    1.88940324    1.68365125
 C                  7.59906079   -0.45447005    2.18876994
 C                  6.62947437    0.57151821    1.94550758
 C                 10.07660920   -0.87736135    2.67184637
 C                 10.62615055    1.73705254    1.65194273
 C                 15.47680607    0.44131066    2.07427552
 C                  9.32587094    1.26214022    1.82674294
 C                 15.91566526   -1.58831225    3.38912469
 H                 16.62329850   -2.27495303    3.84311275
 C                 14.96509582    2.40678752    0.71264885
 H                 15.30687410    3.23494892    0.09883111
 C                 13.61435990    2.20122067    0.87226897
 H                 12.93059197    2.86799213    0.37134926
 C                 14.56195779   -1.82448498    3.50167114
 H                 14.17138841   -2.68759775    4.02865981
 C                 13.11208258    1.12831728    1.66319912
 C                 17.79219149   -0.20451817    2.51883586
 H                 18.50690737   -0.88235889    2.97604287
 C                 17.32640069    1.77116113    1.19289040
 H                 17.68176326    2.62112233    0.61792612
 C                  9.89880064   -2.17845467    3.38257078
 C                  4.77773406   -1.03556353    2.14847664
 C                 10.79774836    3.17549698    1.28997592
 C                  7.10838651   -1.78457625    2.32670839
 H                  7.79911440   -2.60552909    2.43615143
 C                  6.12919784    2.94129917    1.47504971
 H                  6.51380016    3.93665848    1.28382764
 C                  3.39371730   -1.29634180    2.15390884
 H                  3.04593492   -2.31435877    2.30219835
 C                 18.23879938    0.89720113    1.79158028
 H                 19.30384029    1.07539891    1.68444650
 C                  4.77683062    2.67542549    1.51222733
 H                  4.06393780    3.47863545    1.35423409
 C                 11.30342826    4.07019418    2.24446787
 H                 11.57774514    3.70279934    3.22909905
 C                  4.29136671    1.35344685    1.74080835
 C                  5.76080398   -2.06011634    2.30871935
 C                  9.35310530   -2.18839658    4.67460943
 H                  9.05305177   -1.25173573    5.13543691
 C                 10.29070018   -3.38846209    2.79211009
 H                 10.72132847   -3.38231150    1.79538877
 C                  2.91133191    1.04716450    1.76187931
 H                  2.19115497    1.84604620    1.61201623
 C                  9.18160554   -3.39444172    5.35827889
 H                  8.75415929   -3.39159209    6.35652865
 C                  9.55728000   -4.60060337    4.75783361
 H                  9.41949611   -5.53873698    5.28702876
 C                 11.46839096    5.42058978    1.92732754
 H                 11.86479621    6.10421178    2.67213940
 C                 10.43893467    3.65336711    0.02141770
 H                 10.03918834    2.96416517   -0.71623713
 C                  2.47398964   -0.25993890    1.96768311
 C                 10.11507452   -4.59438231    3.47442532
 H                 10.41277728   -5.52705853    3.00466568
 C                 11.12606986    5.88903269    0.65458710
 H                 11.25884852    6.93773020    0.40612791
 C                 10.60806518    5.00279699   -0.29650129
 H                 10.33631977    5.36121799   -1.28487060
 C                  5.23130492    0.29969613    1.94829851
 H                  5.43296295   -3.07334100    2.41262336
 H                  1.42550842   -0.47319994    1.97802077

 1 6 1.0 7 1.0
 2 10 1.0 16 1.0
 3 7 1.5 15 1.5 26 1.5
 4 11 1.0 13 1.5 16 1.5
 5 15 1.5 17 1.5 27 1.5
 6 9 1.5 13 1.5
 7 23 1.5
 8 15 1.5 19 1.5 29 1.5
 9 14 1.5 26 1.0
 10 12 1.5 36 1.5
 11 12 1.5 34 1.5
 12 25 1.5
 13 31 1.0
 14 16 1.5 33 1.0
 15
 16
 17 18 1.0 23 2.0
 18
 19 20 1.0 21 2.0
 20
 21 22 1.0 26 1.5
 22
 23 24 1.0
 24
 25 32 1.5 46 1.5
 26
 27 28 1.0 40 1.5
 28
 29 30 1.0 40 1.5
 30
 31 49 1.5 51 1.5
 32 38 1.5 47 1.5
 33 44 1.5 61 1.5
 34 35 1.0 47 2.0
 35
 36 37 1.0 42 2.0
 37
 38 39 1.0 63 1.5
 39
 40 41 1.0
 41
 42 43 1.0 46 1.5
 43
 44 45 1.0 59 1.5
 45
 46 53 1.5
 47 48 1.0
 48
 49 50 1.0 55 1.5
 50
 51 52 1.0 65 1.5
 52
 53 54 1.0 63 1.5
 54
 55 56 1.0 57 1.5
 56
 57 58 1.0 65 1.5
 58
 59 60 1.0 67 1.5
 60
 61 62 1.0 69 1.5
 62
 63 64 1.0
 64
 65 66 1.0
 66
 67 68 1.0 69 1.5
 68
 69 70 1.0
 70
 71 76 1.0 77 1.0
 72 80 1.0 86 1.0
 73 77 1.5 85 1.5 95 1.5
 74 81 1.0 83 1.5 86 1.5
 75 85 1.5 87 1.5 96 1.5
 76 79 1.5 83 1.5
 77 93 1.5
 78 85 1.5 89 1.5 98 1.5
 79 84 1.5 95 1.0
 80 82 1.5 105 1.5
 81 82 1.5 103 1.5
 82 140 1.5
 83 100 1.0
 84 86 1.5 102 1.0
 85
 86
 87 88 1.0 93 2.0
 88
 89 90 1.0 91 2.0
 90
 91 92 1.0 95 1.5
 92
 93 94 1.0
 94
 95
 96 97 1.0 109 1.5
 97
 98 99 1.0 109 1.5
 99
 100 118 1.5 120 1.5
 101 107 1.5 116 1.5 140 1.5
 102 113 1.5 130 1.5
 103 104 1.0 116 2.0
 104
 105 106 1.0 111 2.0
 106
 107 108 1.0 132 1.5
 108
 109 110 1.0
 110
 111 112 1.0 115 1.5
 112
 113 114 1.0 128 1.5
 114
 115 122 1.5 140 1.5
 116 117 1.0
 117
 118 119 1.0 124 1.5
 119
 120 121 1.0 134 1.5
 121
 122 123 1.0 132 1.5
 123
 124 125 1.0 126 1.5
 125
 126 127 1.0 134 1.5
 127
 128 129 1.0 136 1.5
 129
 130 131 1.0 138 1.5
 131
 132 133 1.0
 133
 134 135 1.0
 135
 136 137 1.0 138 1.5
 137
 138 139 1.0
 139
 140







