%chk=/oasis/projects/nsf/lhu120/cmw414/rc_slip_x_new/2_2A/dimer/dimer.chk
%mem=110GB
#p b3lyp/6-311g(d,p) nosymm pop=full iop(3/33=1) punch=mo

c47

2 1
 O                  1.86343256   -2.18814168   -0.63312396
 O                 -1.87688744    1.76594132   -0.63317696
 C                  3.69461456   -0.67140268   -0.87047896
 C                 -1.39648944   -0.60712468   -0.87219696
 C                  5.97175156   -1.62878468   -0.73581696
 C                  0.95630456   -1.17504168   -0.77241696
 C                  3.19421256   -1.96292068   -0.63793396
 C                  5.65376956    0.77013232   -1.23999596
 C                  1.38305156    0.18492932   -0.87218096
 C                 -3.20766744    1.54071032   -0.63799196
 C                 -2.81321944   -0.85705968   -1.03609996
 C                 -3.70805744    0.24918032   -0.87049696
 C                 -0.37497644   -1.59266368   -0.78251796
 C                  0.36153156    1.17047132   -0.78252296
 C                  5.10807156   -0.51188368   -0.94441996
 C                 -0.96975044    0.75284632   -0.77244796
 C                  5.39488456   -2.90675768   -0.47207296
 H                  6.04966056   -3.75780568   -0.31297796
 C                  4.74462556    1.84550032   -1.48258496
 H                  5.14791656    2.81613132   -1.75583896
 C                  3.38157356    1.68676032   -1.38711396
 H                  2.74968056    2.53497832   -1.59754396
 C                  4.02720956   -3.07643968   -0.43155996
 H                  3.57365556   -4.04439768   -0.25108496
 C                 -5.12151244    0.08963932   -0.94441896
 C                  2.79978656    0.43484332   -1.03611196
 C                  7.36964356   -1.42936968   -0.80567596
 H                  8.03205756   -2.27390668   -0.64047896
 C                  7.05237556    0.92132132   -1.30766596
 H                  7.47035056    1.89702532   -1.53701096
 C                 -0.64793744   -3.04866968   -0.59509396
 C                 -5.66719544   -1.19239768   -1.23993096
 C                  0.63446856    2.62647732   -0.59506596
 C                 -3.39498944   -2.10900768   -1.38701396
 H                 -2.76308144   -2.95723068   -1.59738596
 C                 -4.04067744    2.65422632   -0.43164996
 H                 -3.58713344    3.62219432   -0.25120396
 C                 -7.06580044   -1.34360768   -1.30758296
 H                 -7.48376544   -2.31932768   -1.53687896
 C                  7.89727656   -0.17032768   -1.08596396
 H                  8.97295756   -0.03707868   -1.13791896
 C                 -5.40835044    2.48452732   -0.47215796
 H                 -6.06313544    3.33557232   -0.31308796
 C                  1.19132356    3.07285032    0.61237504
 H                  1.43075056    2.35253132    1.38925504
 C                 -5.98520444    1.20653832   -0.73585396
 C                 -4.75804044   -2.26777068   -1.48246496
 H                 -5.16132144   -3.23842268   -1.75565596
 C                 -1.20495544   -3.49503768    0.61227204
 H                 -1.44447744   -2.77471768    1.38912204
 C                 -0.33428944   -3.98126668   -1.59421096
 H                  0.10494656   -3.63898068   -2.52632896
 C                 -7.38309444    1.00710232   -0.80569496
 H                 -8.04551744    1.85163832   -0.64052696
 C                 -1.46487044   -4.85334768    0.80924704
 H                 -1.90033044   -5.18805568    1.74603204
 C                 -1.16705344   -5.77762768   -0.19748196
 H                 -1.37357744   -6.83295368   -0.04661296
 C                  1.45120356    4.43116132    0.80938404
 H                  1.88654356    4.76587132    1.74622404
 C                  0.32092856    3.55907532   -1.59421596
 H                 -0.11819244    3.21678732   -2.52638696
 C                 -7.91071344   -0.25195768   -1.08592496
 H                 -8.98639244   -0.38522368   -1.13786596
 C                 -0.59829944   -5.33868768   -1.39838196
 H                 -0.36076744   -6.05187768   -2.18204296
 C                  1.15351056    5.35543932   -0.19738296
 H                  1.36000956    6.41076732   -0.04648696
 C                  0.58490756    4.91649632   -1.39835396
 H                  0.34746656    5.62968632   -2.18204196
 O                 14.40500527   -0.80393572    2.99103315
 O                 10.40857082    2.60933792    1.57581557
 C                 16.13407092    0.64181625    2.19718471
 C                 11.05083142    0.35255658    2.21908403
 C                 18.46772575   -0.04146461    2.65243130
 C                 13.43443305    0.02307225    2.49838446
 C                 15.71759382   -0.50566867    2.89167970
 C                 17.99802625    1.97811479    1.30677414
 C                 13.77065119    1.27768867    1.90300055
 C                  9.09614178    2.30753508    1.66621841
 C                  9.65693879   -0.03633821    2.17133710
 C                  8.68735237    0.98965005    1.92807474
 C                 12.13448720   -0.45922951    2.65441353
 C                 12.68402855    2.15518438    1.63450989
 C                 17.53468407    0.85944250    2.05684268
 C                 11.38374894    1.68027206    1.80931010
 C                 17.97354326   -1.17018041    3.37169185
 H                 18.68117650   -1.85682119    3.82567991
 C                 17.02297382    2.82491936    0.69521601
 H                 17.36475210    3.65308076    0.08139827
 C                 15.67223790    2.61935251    0.85483613
 H                 14.98846997    3.28612397    0.35391642
 C                 16.61983579   -1.40635314    3.48423830
 H                 16.22926641   -2.26946591    4.01122697
 C                 15.16996058    1.54644912    1.64576628
 C                 19.85006949    0.21361367    2.50140302
 H                 20.56478537   -0.46422705    2.95861003
 C                 19.38427869    2.18929297    1.17545756
 H                 19.73964126    3.03925417    0.60049328
 C                 11.95667864   -1.76032283    3.36513794
 C                  6.83561206   -0.61743169    2.13104380
 C                 12.85562636    3.59362882    1.27254308
 C                  9.16626451   -1.36644441    2.30927555
 H                  9.85699240   -2.18739725    2.41871859
 C                  8.18707584    3.35943101    1.45761687
 H                  8.57167816    4.35479032    1.26639480
 C                  5.45159530   -0.87820996    2.13647600
 H                  5.10381292   -1.89622693    2.28476551
 C                 20.29667738    1.31533297    1.77414744
 H                 21.36171829    1.49353075    1.66701366
 C                  6.83470862    3.09355733    1.49479449
 H                  6.12181580    3.89676729    1.33680125
 C                 13.36130626    4.48832602    2.22703503
 H                 13.63562314    4.12093118    3.21166621
 C                  6.34924471    1.77157869    1.72337551
 C                  7.81868198   -1.64198450    2.29128651
 C                 11.41098330   -1.77026474    4.65717659
 H                 11.11092977   -0.83360389    5.11800407
 C                 12.34857818   -2.97033025    2.77467725
 H                 12.77920647   -2.96417966    1.77795593
 C                  4.96920991    1.46529634    1.74444647
 H                  4.24903297    2.26417804    1.59458339
 C                 11.23948354   -2.97630988    5.34084605
 H                 10.81203729   -2.97346025    6.33909581
 C                 11.61515800   -4.18247153    4.74040077
 H                 11.47737411   -5.12060514    5.26959592
 C                 13.52626896    5.83872162    1.90989470
 H                 13.92267421    6.52234362    2.65470656
 C                 12.49681267    4.07149895    0.00398486
 H                 12.09706634    3.38229701   -0.73366997
 C                  4.53186764    0.15819294    1.95025027
 C                 12.17295252   -4.17625047    3.45699248
 H                 12.47065528   -5.10892669    2.98723284
 C                 13.18394786    6.30716453    0.63715426
 H                 13.31672652    7.35586204    0.38869507
 C                 12.66594318    5.42092883   -0.31393413
 H                 12.39419777    5.77934983   -1.30230344
 C                  7.28918292    0.71782797    1.93086567
 H                  7.49084095   -2.65520916    2.39519052
 H                  3.48338642   -0.05506810    1.96058793

 1 6 1.0 7 1.0
 2 10 1.0 16 1.0
 3 7 1.5 15 1.5 26 1.5
 4 11 1.0 13 1.5 16 1.5
 5 15 1.5 17 1.5 27 1.5
 6 9 1.5 13 1.5
 7 23 1.5
 8 15 1.5 19 1.5 29 1.5
 9 14 1.5 26 1.0
 10 12 1.5 36 1.5
 11 12 1.5 34 1.5
 12 25 1.5
 13 31 1.0
 14 16 1.5 33 1.0
 15
 16
 17 18 1.0 23 2.0
 18
 19 20 1.0 21 2.0
 20
 21 22 1.0 26 1.5
 22
 23 24 1.0
 24
 25 32 1.5 46 1.5
 26
 27 28 1.0 40 1.5
 28
 29 30 1.0 40 1.5
 30
 31 49 1.5 51 1.5
 32 38 1.5 47 1.5
 33 44 1.5 61 1.5
 34 35 1.0 47 2.0
 35
 36 37 1.0 42 2.0
 37
 38 39 1.0 63 1.5
 39
 40 41 1.0
 41
 42 43 1.0 46 1.5
 43
 44 45 1.0 59 1.5
 45
 46 53 1.5
 47 48 1.0
 48
 49 50 1.0 55 1.5
 50
 51 52 1.0 65 1.5
 52
 53 54 1.0 63 1.5
 54
 55 56 1.0 57 1.5
 56
 57 58 1.0 65 1.5
 58
 59 60 1.0 67 1.5
 60
 61 62 1.0 69 1.5
 62
 63 64 1.0
 64
 65 66 1.0
 66
 67 68 1.0 69 1.5
 68
 69 70 1.0
 70
 71 76 1.0 77 1.0
 72 80 1.0 86 1.0
 73 77 1.5 85 1.5 95 1.5
 74 81 1.0 83 1.5 86 1.5
 75 85 1.5 87 1.5 96 1.5
 76 79 1.5 83 1.5
 77 93 1.5
 78 85 1.5 89 1.5 98 1.5
 79 84 1.5 95 1.0
 80 82 1.5 105 1.5
 81 82 1.5 103 1.5
 82 140 1.5
 83 100 1.0
 84 86 1.5 102 1.0
 85
 86
 87 88 1.0 93 2.0
 88
 89 90 1.0 91 2.0
 90
 91 92 1.0 95 1.5
 92
 93 94 1.0
 94
 95
 96 97 1.0 109 1.5
 97
 98 99 1.0 109 1.5
 99
 100 118 1.5 120 1.5
 101 107 1.5 116 1.5 140 1.5
 102 113 1.5 130 1.5
 103 104 1.0 116 2.0
 104
 105 106 1.0 111 2.0
 106
 107 108 1.0 132 1.5
 108
 109 110 1.0
 110
 111 112 1.0 115 1.5
 112
 113 114 1.0 128 1.5
 114
 115 122 1.5 140 1.5
 116 117 1.0
 117
 118 119 1.0 124 1.5
 119
 120 121 1.0 134 1.5
 121
 122 123 1.0 132 1.5
 123
 124 125 1.0 126 1.5
 125
 126 127 1.0 134 1.5
 127
 128 129 1.0 136 1.5
 129
 130 131 1.0 138 1.5
 131
 132 133 1.0
 133
 134 135 1.0
 135
 136 137 1.0 138 1.5
 137
 138 139 1.0
 139
 140





























