%chk=/oasis/projects/nsf/lhu120/cmw414/pent_slip_x/2_6A/dimer/dimer.chk
%nprocshared=24
%mem=110GB
#p b3lyp/6-311g(d,p) nosymm pop=full iop(3/33=1) punch=mo

c47

0 1
 C                 -8.02009943   -6.00686707    1.20346030
 C                 -7.99209943   -5.15086707    0.14746030
 C                 -7.37109943   -5.46886707   -1.08753970
 C                 -7.35609943   -4.56986707   -2.17253970
 C                 -6.70109943   -4.90286707   -3.39053970
 C                 -6.65209943   -4.03886707   -4.47253970
 C                 -6.10409943   -6.24686707   -3.52453970
 C                 -6.21909943   -7.09086707   -2.46653970
 C                 -6.74009943   -6.78686707   -1.22153970
 C                 -6.86609943   -7.65586707   -0.13053970
 C                 -7.37809943   -7.33886707    1.07446030
 H                 -8.51009943   -5.68786707    2.27046030
 H                 -8.40109943   -4.12686707    0.24046030
 H                 -7.79009943   -3.55686707   -2.03653970
 H                 -7.11909943   -3.02086707   -4.32753970
 H                 -5.76109943   -8.10186707   -2.55853970
 H                 -6.40909943   -8.66186707   -0.20953970
 H                 -7.38909943   -8.01786707    1.95146030
 C                 -6.05209943   -4.35786707   -5.71053970
 C                 -5.50409943   -6.56586707   -4.76253970
 C                 -5.45409943   -5.70286707   -5.84453970
 C                 -5.93709943   -3.51486707   -6.76853970
 H                 -5.03609943   -7.58486707   -4.90753970
 C                 -4.80009943   -6.03586707   -7.06253970
 C                 -5.41509943   -3.81886707   -8.01353970
 H                 -6.39509943   -2.50386707   -6.67653970
 C                 -4.78509943   -5.13686707   -8.14753970
 H                 -4.36609943   -7.04786707   -7.19853970
 C                 -5.29009943   -2.94986707   -9.10453970
 C                 -4.16409943   -5.45386707   -9.38253970
 C                 -4.77809943   -3.26686707  -10.30953970
 H                 -5.74709943   -1.94386707   -9.02553970
 C                 -4.13609943   -4.59886707  -10.43853970
 H                 -3.75509943   -6.47886707   -9.47553970
 H                 -4.76609943   -2.58786707  -11.18653970
 H                 -3.64609943   -4.91786707  -11.50553970
 C                 -5.55955519   -5.28557798    4.80563065
 C                 -5.53155519   -4.42957798    3.74963065
 C                 -4.91055519   -4.74757798    2.51463065
 C                 -4.89555519   -3.84857798    1.42963065
 C                 -4.24055519   -4.18157798    0.21163065
 C                 -4.19155519   -3.31757798   -0.87036935
 C                 -3.64355519   -5.52557798    0.07763065
 C                 -3.75855519   -6.36957798    1.13563065
 C                 -4.27955519   -6.06557798    2.38063065
 C                 -4.40555519   -6.93457798    3.47163065
 C                 -4.91755519   -6.61757798    4.67663065
 H                 -6.04955519   -4.96657798    5.87263065
 H                 -5.94055519   -3.40557798    3.84263065
 H                 -5.32955519   -2.83557798    1.56563065
 H                 -4.65855519   -2.29957798   -0.72536935
 H                 -3.30055519   -7.38057798    1.04363065
 H                 -3.94855519   -7.94057798    3.39263065
 H                 -4.92855519   -7.29657798    5.55363065
 C                 -3.59155519   -3.63657798   -2.10836935
 C                 -3.04355519   -5.84457798   -1.16036935
 C                 -2.99355519   -4.98157798   -2.24236935
 C                 -3.47655519   -2.79357798   -3.16636935
 H                 -2.57555519   -6.86357798   -1.30536935
 C                 -2.33955519   -5.31457798   -3.46036935
 C                 -2.95455519   -3.09757798   -4.41136935
 H                 -3.93455519   -1.78257798   -3.07436935
 C                 -2.32455519   -4.41557798   -4.54536935
 H                 -1.90555519   -6.32657798   -3.59636935
 C                 -2.82955519   -2.22857798   -5.50236935
 C                 -1.70355519   -4.73257798   -5.78036935
 C                 -2.31755519   -2.54557798   -6.70736935
 H                 -3.28655519   -1.22257798   -5.42336935
 C                 -1.67555519   -3.87757798   -6.83636935
 H                 -1.29455519   -5.75757798   -5.87336935
 H                 -2.30555519   -1.86657798   -7.58436935
 H                 -1.18555519   -4.19657798   -7.90336935

 1 2 2.0 11 1.0 12 1.0
 2 3 1.5 13 1.0
 3 4 1.5 9 1.0
 4 5 1.5 14 1.0
 5 6 2.0 7 1.0
 6 15 1.0 19 1.5
 7 8 2.0 20 1.5
 8 9 2.0 16 1.0
 9 10 1.5
 10 11 2.0 17 1.0
 11 18 1.0
 12
 13
 14
 15
 16
 17
 18
 19 21 1.0 22 2.0
 20 21 2.0 23 1.0
 21 24 1.5
 22 25 2.0 26 1.0
 23
 24 27 1.5 28 1.0
 25 27 1.0 29 1.5
 26
 27 30 1.5
 28
 29 31 2.0 32 1.0
 30 33 2.0 34 1.0
 31 33 1.0 35 1.0
 32
 33 36 1.0
 34
 35
 36
 37 38 2.0 47 1.0 48 1.0
 38 39 1.5 49 1.0
 39 40 1.5 45 1.0
 40 41 1.5 50 1.0
 41 42 2.0 43 1.0
 42 51 1.0 55 1.5
 43 44 2.0 56 1.5
 44 45 2.0 52 1.0
 45 46 1.5
 46 47 2.0 53 1.0
 47 54 1.0
 48
 49
 50
 51
 52
 53
 54
 55 57 1.0 58 2.0
 56 57 2.0 59 1.0
 57 60 1.5
 58 61 2.0 62 1.0
 59
 60 63 1.5 64 1.0
 61 63 1.0 65 1.5
 62
 63 66 1.5
 64
 65 67 2.0 68 1.0
 66 69 2.0 70 1.0
 67 69 1.0 71 1.0
 68
 69 72 1.0
 70
 71
 72

