%chk=/oasis/projects/nsf/lhu120/cmw414/rc_slip_y_90/0_6A/dimer/dimer.chk
%mem=110GB
#p b3lyp/6-311g(d,p) nosymm pop=full iop(3/33=1) punch=mo

c47

2 1
 O                  1.86343256   -2.18814168   -0.63312396
 O                 -1.87688744    1.76594132   -0.63317696
 C                  3.69461456   -0.67140268   -0.87047896
 C                 -1.39648944   -0.60712468   -0.87219696
 C                  5.97175156   -1.62878468   -0.73581696
 C                  0.95630456   -1.17504168   -0.77241696
 C                  3.19421256   -1.96292068   -0.63793396
 C                  5.65376956    0.77013232   -1.23999596
 C                  1.38305156    0.18492932   -0.87218096
 C                 -3.20766744    1.54071032   -0.63799196
 C                 -2.81321944   -0.85705968   -1.03609996
 C                 -3.70805744    0.24918032   -0.87049696
 C                 -0.37497644   -1.59266368   -0.78251796
 C                  0.36153156    1.17047132   -0.78252296
 C                  5.10807156   -0.51188368   -0.94441996
 C                 -0.96975044    0.75284632   -0.77244796
 C                  5.39488456   -2.90675768   -0.47207296
 H                  6.04966056   -3.75780568   -0.31297796
 C                  4.74462556    1.84550032   -1.48258496
 H                  5.14791656    2.81613132   -1.75583896
 C                  3.38157356    1.68676032   -1.38711396
 H                  2.74968056    2.53497832   -1.59754396
 C                  4.02720956   -3.07643968   -0.43155996
 H                  3.57365556   -4.04439768   -0.25108496
 C                 -5.12151244    0.08963932   -0.94441896
 C                  2.79978656    0.43484332   -1.03611196
 C                  7.36964356   -1.42936968   -0.80567596
 H                  8.03205756   -2.27390668   -0.64047896
 C                  7.05237556    0.92132132   -1.30766596
 H                  7.47035056    1.89702532   -1.53701096
 C                 -0.64793744   -3.04866968   -0.59509396
 C                 -5.66719544   -1.19239768   -1.23993096
 C                  0.63446856    2.62647732   -0.59506596
 C                 -3.39498944   -2.10900768   -1.38701396
 H                 -2.76308144   -2.95723068   -1.59738596
 C                 -4.04067744    2.65422632   -0.43164996
 H                 -3.58713344    3.62219432   -0.25120396
 C                 -7.06580044   -1.34360768   -1.30758296
 H                 -7.48376544   -2.31932768   -1.53687896
 C                  7.89727656   -0.17032768   -1.08596396
 H                  8.97295756   -0.03707868   -1.13791896
 C                 -5.40835044    2.48452732   -0.47215796
 H                 -6.06313544    3.33557232   -0.31308796
 C                  1.19132356    3.07285032    0.61237504
 H                  1.43075056    2.35253132    1.38925504
 C                 -5.98520444    1.20653832   -0.73585396
 C                 -4.75804044   -2.26777068   -1.48246496
 H                 -5.16132144   -3.23842268   -1.75565596
 C                 -1.20495544   -3.49503768    0.61227204
 H                 -1.44447744   -2.77471768    1.38912204
 C                 -0.33428944   -3.98126668   -1.59421096
 H                  0.10494656   -3.63898068   -2.52632896
 C                 -7.38309444    1.00710232   -0.80569496
 H                 -8.04551744    1.85163832   -0.64052696
 C                 -1.46487044   -4.85334768    0.80924704
 H                 -1.90033044   -5.18805568    1.74603204
 C                 -1.16705344   -5.77762768   -0.19748196
 H                 -1.37357744   -6.83295368   -0.04661296
 C                  1.45120356    4.43116132    0.80938404
 H                  1.88654356    4.76587132    1.74622404
 C                  0.32092856    3.55907532   -1.59421596
 H                 -0.11819244    3.21678732   -2.52638696
 C                 -7.91071344   -0.25195768   -1.08592496
 H                 -8.98639244   -0.38522368   -1.13786596
 C                 -0.59829944   -5.33868768   -1.39838196
 H                 -0.36076744   -6.05187768   -2.18204296
 C                  1.15351056    5.35543932   -0.19738296
 H                  1.36000956    6.41076732   -0.04648696
 C                  0.58490756    4.91649632   -1.39835396
 H                  0.34746656    5.62968632   -2.18204196
 O                 12.50568564   -1.77944574    3.08216493
 O                  8.50925119    1.63382790    1.66694735
 C                 14.23475129   -0.33369377    2.28831649
 C                  9.15151179   -0.62295344    2.31021581
 C                 16.56840612   -1.01697463    2.74356308
 C                 11.53511342   -0.95243777    2.58951624
 C                 13.81827419   -1.48117869    2.98281148
 C                 16.09870662    1.00260477    1.39790592
 C                 11.87133156    0.30217865    1.99413233
 C                  7.19682215    1.33202506    1.75735019
 C                  7.75761916   -1.01184823    2.26246888
 C                  6.78803274    0.01414003    2.01920652
 C                 10.23516757   -1.43473953    2.74554531
 C                 10.78470892    1.17967436    1.72564167
 C                 15.63536444   -0.11606752    2.14797446
 C                  9.48442931    0.70476204    1.90044188
 C                 16.07422363   -2.14569043    3.46282363
 H                 16.78185687   -2.83233121    3.91681169
 C                 15.12365419    1.84940934    0.78634779
 H                 15.46543247    2.67757074    0.17253005
 C                 13.77291827    1.64384249    0.94596791
 H                 13.08915034    2.31061395    0.44504820
 C                 14.72051616   -2.38186316    3.57537008
 H                 14.32994678   -3.24497593    4.10235875
 C                 13.27064095    0.57093910    1.73689806
 C                 17.95074986   -0.76189635    2.59253480
 H                 18.66546574   -1.43973707    3.04974181
 C                 17.48495906    1.21378295    1.26658934
 H                 17.84032163    2.06374415    0.69162506
 C                 10.05735901   -2.73583285    3.45626972
 C                  4.93629243   -1.59294171    2.22217558
 C                 10.95630673    2.61811880    1.36367486
 C                  7.26694488   -2.34195443    2.40040733
 H                  7.95767277   -3.16290727    2.50985037
 C                  6.28775621    2.38392099    1.54874865
 H                  6.67235853    3.37928030    1.35752658
 C                  3.55227567   -1.85371998    2.22760778
 H                  3.20449329   -2.87173695    2.37589729
 C                 18.39735775    0.33982295    1.86527922
 H                 19.46239866    0.51802073    1.75814544
 C                  4.93538899    2.11804731    1.58592627
 H                  4.22249617    2.92125727    1.42793303
 C                 11.46198663    3.51281600    2.31816681
 H                 11.73630351    3.14542116    3.30279799
 C                  4.44992508    0.79606867    1.81450729
 C                  5.91936235   -2.61749452    2.38241829
 C                  9.51166367   -2.74577476    4.74830837
 H                  9.21161014   -1.80911391    5.20913585
 C                 10.44925855   -3.94584027    2.86580903
 H                 10.87988684   -3.93968968    1.86908771
 C                  3.06989028    0.48978632    1.83557825
 H                  2.34971334    1.28866802    1.68571517
 C                  9.34016391   -3.95181990    5.43197783
 H                  8.91271766   -3.94897027    6.43022759
 C                  9.71583837   -5.15798155    4.83153255
 H                  9.57805448   -6.09611516    5.36072770
 C                 11.62694933    4.86321160    2.00102648
 H                 12.02335458    5.54683360    2.74583834
 C                 10.59749304    3.09598893    0.09511664
 H                 10.19774671    2.40678699   -0.64253819
 C                  2.63254801   -0.81731708    2.04138205
 C                 10.27363289   -5.15176049    3.54812426
 H                 10.57133565   -6.08443671    3.07836462
 C                 11.28462823    5.33165451    0.72828604
 H                 11.41740689    6.38035202    0.47982685
 C                 10.76662355    4.44541881   -0.22280235
 H                 10.49487814    4.80383981   -1.21117166
 C                  5.38986329   -0.25768205    2.02199745
 H                  5.59152132   -3.63071918    2.48632230
 H                  1.58406679   -1.03057812    2.05171971

 1 6 1.0 7 1.0
 2 10 1.0 16 1.0
 3 7 1.5 15 1.5 26 1.5
 4 11 1.0 13 1.5 16 1.5
 5 15 1.5 17 1.5 27 1.5
 6 9 1.5 13 1.5
 7 23 1.5
 8 15 1.5 19 1.5 29 1.5
 9 14 1.5 26 1.0
 10 12 1.5 36 1.5
 11 12 1.5 34 1.5
 12 25 1.5
 13 31 1.0
 14 16 1.5 33 1.0
 15
 16
 17 18 1.0 23 2.0
 18
 19 20 1.0 21 2.0
 20
 21 22 1.0 26 1.5
 22
 23 24 1.0
 24
 25 32 1.5 46 1.5
 26
 27 28 1.0 40 1.5
 28
 29 30 1.0 40 1.5
 30
 31 49 1.5 51 1.5
 32 38 1.5 47 1.5
 33 44 1.5 61 1.5
 34 35 1.0 47 2.0
 35
 36 37 1.0 42 2.0
 37
 38 39 1.0 63 1.5
 39
 40 41 1.0
 41
 42 43 1.0 46 1.5
 43
 44 45 1.0 59 1.5
 45
 46 53 1.5
 47 48 1.0
 48
 49 50 1.0 55 1.5
 50
 51 52 1.0 65 1.5
 52
 53 54 1.0 63 1.5
 54
 55 56 1.0 57 1.5
 56
 57 58 1.0 65 1.5
 58
 59 60 1.0 67 1.5
 60
 61 62 1.0 69 1.5
 62
 63 64 1.0
 64
 65 66 1.0
 66
 67 68 1.0 69 1.5
 68
 69 70 1.0
 70
 71 76 1.0 77 1.0
 72 80 1.0 86 1.0
 73 77 1.5 85 1.5 95 1.5
 74 81 1.0 83 1.5 86 1.5
 75 85 1.5 87 1.5 96 1.5
 76 79 1.5 83 1.5
 77 93 1.5
 78 85 1.5 89 1.5 98 1.5
 79 84 1.5 95 1.0
 80 82 1.5 105 1.5
 81 82 1.5 103 1.5
 82 140 1.5
 83 100 1.0
 84 86 1.5 102 1.0
 85
 86
 87 88 1.0 93 2.0
 88
 89 90 1.0 91 2.0
 90
 91 92 1.0 95 1.5
 92
 93 94 1.0
 94
 95
 96 97 1.0 109 1.5
 97
 98 99 1.0 109 1.5
 99
 100 118 1.5 120 1.5
 101 107 1.5 116 1.5 140 1.5
 102 113 1.5 130 1.5
 103 104 1.0 116 2.0
 104
 105 106 1.0 111 2.0
 106
 107 108 1.0 132 1.5
 108
 109 110 1.0
 110
 111 112 1.0 115 1.5
 112
 113 114 1.0 128 1.5
 114
 115 122 1.5 140 1.5
 116 117 1.0
 117
 118 119 1.0 124 1.5
 119
 120 121 1.0 134 1.5
 121
 122 123 1.0 132 1.5
 123
 124 125 1.0 126 1.5
 125
 126 127 1.0 134 1.5
 127
 128 129 1.0 136 1.5
 129
 130 131 1.0 138 1.5
 131
 132 133 1.0
 133
 134 135 1.0
 135
 136 137 1.0 138 1.5
 137
 138 139 1.0
 139
 140













