%chk=/oasis/projects/nsf/lhu120/cmw414/pent_stack/9_9A/dimer/dimer.chk
%nprocshared=24
%mem=110GB
#p b3lyp/6-311g(d,p) nosymm pop=full iop(3/33=1) punch=mo

c47

0 1
 C                 -8.71269653   -6.57702505    3.64379411
 C                 -8.68469653   -5.72102505    2.58779411
 C                 -8.06369653   -6.03902505    1.35279411
 C                 -8.04869653   -5.14002505    0.26779411
 C                 -7.39369653   -5.47302505   -0.95020589
 C                 -7.34469653   -4.60902505   -2.03220589
 C                 -6.79669653   -6.81702505   -1.08420589
 C                 -6.91169653   -7.66102505   -0.02620589
 C                 -7.43269653   -7.35702505    1.21879411
 C                 -7.55869653   -8.22602505    2.30979411
 C                 -8.07069653   -7.90902505    3.51479411
 H                 -9.20269653   -6.25802505    4.71079411
 H                 -9.09369653   -4.69702505    2.68079411
 H                 -8.48269653   -4.12702505    0.40379411
 H                 -7.81169653   -3.59102505   -1.88720589
 H                 -6.45369653   -8.67202505   -0.11820589
 H                 -7.10169653   -9.23202505    2.23079411
 H                 -8.08169653   -8.58802505    4.39179411
 C                 -6.74469653   -4.92802505   -3.27020589
 C                 -6.19669653   -7.13602505   -2.32220589
 C                 -6.14669653   -6.27302505   -3.40420589
 C                 -6.62969653   -4.08502505   -4.32820589
 H                 -5.72869653   -8.15502505   -2.46720589
 C                 -5.49269653   -6.60602505   -4.62220589
 C                 -6.10769653   -4.38902505   -5.57320589
 H                 -7.08769653   -3.07402505   -4.23620589
 C                 -5.47769653   -5.70702505   -5.70720589
 H                 -5.05869653   -7.61802505   -4.75820589
 C                 -5.98269653   -3.52002505   -6.66420589
 C                 -4.85669653   -6.02402505   -6.94220589
 C                 -5.47069653   -3.83702505   -7.86920589
 H                 -6.43969653   -2.51402505   -6.58520589
 C                 -4.82869653   -5.16902505   -7.99820589
 H                 -4.44769653   -7.04902505   -7.03520589
 H                 -5.45869653   -3.15802505   -8.74620589
 H                 -4.33869653   -5.48802505   -9.06520589
 C                 -0.04156084   -3.02554684    6.83884350
 C                 -0.01356084   -2.16954684    5.78284350
 C                  0.60743916   -2.48754684    4.54784350
 C                  0.62243916   -1.58854684    3.46284350
 C                  1.27743916   -1.92154684    2.24484350
 C                  1.32643916   -1.05754684    1.16284350
 C                  1.87443916   -3.26554684    2.11084350
 C                  1.75943916   -4.10954684    3.16884350
 C                  1.23843916   -3.80554684    4.41384350
 C                  1.11243916   -4.67454684    5.50484350
 C                  0.60043916   -4.35754684    6.70984350
 H                 -0.53156084   -2.70654684    7.90584350
 H                 -0.42256084   -1.14554684    5.87584350
 H                  0.18843916   -0.57554684    3.59884350
 H                  0.85943916   -0.03954684    1.30784350
 H                  2.21743916   -5.12054684    3.07684350
 H                  1.56943916   -5.68054684    5.42584350
 H                  0.58943916   -5.03654684    7.58684350
 C                  1.92643916   -1.37654684   -0.07515650
 C                  2.47443916   -3.58454684    0.87284350
 C                  2.52443916   -2.72154684   -0.20915650
 C                  2.04143916   -0.53354684   -1.13315650
 H                  2.94243916   -4.60354684    0.72784350
 C                  3.17843916   -3.05454684   -1.42715650
 C                  2.56343916   -0.83754684   -2.37815650
 H                  1.58343916    0.47745316   -1.04115650
 C                  3.19343916   -2.15554684   -2.51215650
 H                  3.61243916   -4.06654684   -1.56315650
 C                  2.68843916    0.03145316   -3.46915650
 C                  3.81443916   -2.47254684   -3.74715650
 C                  3.20043916   -0.28554684   -4.67415650
 H                  2.23143916    1.03745316   -3.39015650
 C                  3.84243916   -1.61754684   -4.80315650
 H                  4.22343916   -3.49754684   -3.84015650
 H                  3.21243916    0.39345316   -5.55115650
 H                  4.33243916   -1.93654684   -5.87015650

 1 2 2.0 11 1.0 12 1.0
 2 3 1.5 13 1.0
 3 4 1.5 9 1.0
 4 5 1.5 14 1.0
 5 6 2.0 7 1.0
 6 15 1.0 19 1.5
 7 8 2.0 20 1.5
 8 9 2.0 16 1.0
 9 10 1.5
 10 11 2.0 17 1.0
 11 18 1.0
 12
 13
 14
 15
 16
 17
 18
 19 21 1.0 22 2.0
 20 21 2.0 23 1.0
 21 24 1.5
 22 25 2.0 26 1.0
 23
 24 27 1.5 28 1.0
 25 27 1.0 29 1.5
 26
 27 30 1.5
 28
 29 31 2.0 32 1.0
 30 33 2.0 34 1.0
 31 33 1.0 35 1.0
 32
 33 36 1.0
 34
 35
 36
 37 38 2.0 47 1.0 48 1.0
 38 39 1.5 49 1.0
 39 40 1.5 45 1.0
 40 41 1.5 50 1.0
 41 42 2.0 43 1.0
 42 51 1.0 55 1.5
 43 44 2.0 56 1.5
 44 45 2.0 52 1.0
 45 46 1.5
 46 47 2.0 53 1.0
 47 54 1.0
 48
 49
 50
 51
 52
 53
 54
 55 57 1.0 58 2.0
 56 57 2.0 59 1.0
 57 60 1.5
 58 61 2.0 62 1.0
 59
 60 63 1.5 64 1.0
 61 63 1.0 65 1.5
 62
 63 66 1.5
 64
 65 67 2.0 68 1.0
 66 69 2.0 70 1.0
 67 69 1.0 71 1.0
 68
 69 72 1.0
 70
 71
 72


