%chk=/oasis/projects/nsf/lhu120/cmw414/rc_slip_y_90/1_0A/dimer/dimer.chk
%mem=110GB
#p b3lyp/6-311g(d,p) nosymm pop=full iop(3/33=1) punch=mo

c47

2 1
 O                  1.86343256   -2.18814168   -0.63312396
 O                 -1.87688744    1.76594132   -0.63317696
 C                  3.69461456   -0.67140268   -0.87047896
 C                 -1.39648944   -0.60712468   -0.87219696
 C                  5.97175156   -1.62878468   -0.73581696
 C                  0.95630456   -1.17504168   -0.77241696
 C                  3.19421256   -1.96292068   -0.63793396
 C                  5.65376956    0.77013232   -1.23999596
 C                  1.38305156    0.18492932   -0.87218096
 C                 -3.20766744    1.54071032   -0.63799196
 C                 -2.81321944   -0.85705968   -1.03609996
 C                 -3.70805744    0.24918032   -0.87049696
 C                 -0.37497644   -1.59266368   -0.78251796
 C                  0.36153156    1.17047132   -0.78252296
 C                  5.10807156   -0.51188368   -0.94441996
 C                 -0.96975044    0.75284632   -0.77244796
 C                  5.39488456   -2.90675768   -0.47207296
 H                  6.04966056   -3.75780568   -0.31297796
 C                  4.74462556    1.84550032   -1.48258496
 H                  5.14791656    2.81613132   -1.75583896
 C                  3.38157356    1.68676032   -1.38711396
 H                  2.74968056    2.53497832   -1.59754396
 C                  4.02720956   -3.07643968   -0.43155996
 H                  3.57365556   -4.04439768   -0.25108496
 C                 -5.12151244    0.08963932   -0.94441896
 C                  2.79978656    0.43484332   -1.03611196
 C                  7.36964356   -1.42936968   -0.80567596
 H                  8.03205756   -2.27390668   -0.64047896
 C                  7.05237556    0.92132132   -1.30766596
 H                  7.47035056    1.89702532   -1.53701096
 C                 -0.64793744   -3.04866968   -0.59509396
 C                 -5.66719544   -1.19239768   -1.23993096
 C                  0.63446856    2.62647732   -0.59506596
 C                 -3.39498944   -2.10900768   -1.38701396
 H                 -2.76308144   -2.95723068   -1.59738596
 C                 -4.04067744    2.65422632   -0.43164996
 H                 -3.58713344    3.62219432   -0.25120396
 C                 -7.06580044   -1.34360768   -1.30758296
 H                 -7.48376544   -2.31932768   -1.53687896
 C                  7.89727656   -0.17032768   -1.08596396
 H                  8.97295756   -0.03707868   -1.13791896
 C                 -5.40835044    2.48452732   -0.47215796
 H                 -6.06313544    3.33557232   -0.31308796
 C                  1.19132356    3.07285032    0.61237504
 H                  1.43075056    2.35253132    1.38925504
 C                 -5.98520444    1.20653832   -0.73585396
 C                 -4.75804044   -2.26777068   -1.48246496
 H                 -5.16132144   -3.23842268   -1.75565596
 C                 -1.20495544   -3.49503768    0.61227204
 H                 -1.44447744   -2.77471768    1.38912204
 C                 -0.33428944   -3.98126668   -1.59421096
 H                  0.10494656   -3.63898068   -2.52632896
 C                 -7.38309444    1.00710232   -0.80569496
 H                 -8.04551744    1.85163832   -0.64052696
 C                 -1.46487044   -4.85334768    0.80924704
 H                 -1.90033044   -5.18805568    1.74603204
 C                 -1.16705344   -5.77762768   -0.19748196
 H                 -1.37357744   -6.83295368   -0.04661296
 C                  1.45120356    4.43116132    0.80938404
 H                  1.88654356    4.76587132    1.74622404
 C                  0.32092856    3.55907532   -1.59421596
 H                 -0.11819244    3.21678732   -2.52638696
 C                 -7.91071344   -0.25195768   -1.08592496
 H                 -8.98639244   -0.38522368   -1.13786596
 C                 -0.59829944   -5.33868768   -1.39838196
 H                 -0.36076744   -6.05187768   -2.18204296
 C                  1.15351056    5.35543932   -0.19738296
 H                  1.36000956    6.41076732   -0.04648696
 C                  0.58490756    4.91649632   -1.39835396
 H                  0.34746656    5.62968632   -2.18204196
 O                 12.67672067   -2.13775716    3.13074413
 O                  8.68028622    1.27551648    1.71552655
 C                 14.40578632   -0.69200519    2.33689569
 C                  9.32254682   -0.98126486    2.35879501
 C                 16.73944115   -1.37528605    2.79214228
 C                 11.70614845   -1.31074919    2.63809544
 C                 13.98930922   -1.83949011    3.03139068
 C                 16.26974165    0.64429335    1.44648512
 C                 12.04236659   -0.05613277    2.04271153
 C                  7.36785718    0.97371364    1.80592939
 C                  7.92865419   -1.37015965    2.31104808
 C                  6.95906777   -0.34417139    2.06778572
 C                 10.40620260   -1.79305095    2.79412451
 C                 10.95574395    0.82136294    1.77422087
 C                 15.80639947   -0.47437894    2.19655366
 C                  9.65546434    0.34645062    1.94902108
 C                 16.24525866   -2.50400185    3.51140283
 H                 16.95289190   -3.19064263    3.96539089
 C                 15.29468922    1.49109792    0.83492699
 H                 15.63646750    2.31925932    0.22110925
 C                 13.94395330    1.28553107    0.99454711
 H                 13.26018537    1.95230253    0.49362740
 C                 14.89155119   -2.74017458    3.62394928
 H                 14.50098181   -3.60328735    4.15093795
 C                 13.44167598    0.21262768    1.78547726
 C                 18.12178489   -1.12020777    2.64111400
 H                 18.83650077   -1.79804849    3.09832101
 C                 17.65599409    0.85547153    1.31516854
 H                 18.01135666    1.70543273    0.74020426
 C                 10.22839404   -3.09414427    3.50484892
 C                  5.10732746   -1.95125313    2.27075478
 C                 11.12734176    2.25980738    1.41225406
 C                  7.43797991   -2.70026585    2.44898653
 H                  8.12870780   -3.52121869    2.55842957
 C                  6.45879124    2.02560957    1.59732785
 H                  6.84339356    3.02096888    1.40610578
 C                  3.72331070   -2.21203140    2.27618698
 H                  3.37552832   -3.23004837    2.42447649
 C                 18.56839278   -0.01848847    1.91385842
 H                 19.63343369    0.15970931    1.80672464
 C                  5.10642402    1.75973589    1.63450547
 H                  4.39353120    2.56294585    1.47651223
 C                 11.63302166    3.15450458    2.36674601
 H                 11.90733854    2.78710974    3.35137719
 C                  4.62096011    0.43775725    1.86308649
 C                  6.09039738   -2.97580594    2.43099749
 C                  9.68269870   -3.10408618    4.79688757
 H                  9.38264517   -2.16742533    5.25771505
 C                 10.62029358   -4.30415169    2.91438823
 H                 11.05092187   -4.29800110    1.91766691
 C                  3.24092531    0.13147490    1.88415745
 H                  2.52074837    0.93035660    1.73429437
 C                  9.51119894   -4.31013132    5.48055703
 H                  9.08375269   -4.30728169    6.47880679
 C                  9.88687340   -5.51629297    4.88011175
 H                  9.74908951   -6.45442658    5.40930690
 C                 11.79798436    4.50490018    2.04960568
 H                 12.19438961    5.18852218    2.79441754
 C                 10.76852807    2.73767751    0.14369584
 H                 10.36878174    2.04847557   -0.59395899
 C                  2.80358304   -1.17562850    2.08996125
 C                 10.44466792   -5.51007191    3.59670346
 H                 10.74237068   -6.44274813    3.12694382
 C                 11.45566326    4.97334309    0.77686524
 H                 11.58844192    6.02204060    0.52840605
 C                 10.93765858    4.08710739   -0.17422315
 H                 10.66591317    4.44552839   -1.16259246
 C                  5.56089832   -0.61599347    2.07057665
 H                  5.76255635   -3.98903060    2.53490150
 H                  1.75510182   -1.38888954    2.10029891

 1 6 1.0 7 1.0
 2 10 1.0 16 1.0
 3 7 1.5 15 1.5 26 1.5
 4 11 1.0 13 1.5 16 1.5
 5 15 1.5 17 1.5 27 1.5
 6 9 1.5 13 1.5
 7 23 1.5
 8 15 1.5 19 1.5 29 1.5
 9 14 1.5 26 1.0
 10 12 1.5 36 1.5
 11 12 1.5 34 1.5
 12 25 1.5
 13 31 1.0
 14 16 1.5 33 1.0
 15
 16
 17 18 1.0 23 2.0
 18
 19 20 1.0 21 2.0
 20
 21 22 1.0 26 1.5
 22
 23 24 1.0
 24
 25 32 1.5 46 1.5
 26
 27 28 1.0 40 1.5
 28
 29 30 1.0 40 1.5
 30
 31 49 1.5 51 1.5
 32 38 1.5 47 1.5
 33 44 1.5 61 1.5
 34 35 1.0 47 2.0
 35
 36 37 1.0 42 2.0
 37
 38 39 1.0 63 1.5
 39
 40 41 1.0
 41
 42 43 1.0 46 1.5
 43
 44 45 1.0 59 1.5
 45
 46 53 1.5
 47 48 1.0
 48
 49 50 1.0 55 1.5
 50
 51 52 1.0 65 1.5
 52
 53 54 1.0 63 1.5
 54
 55 56 1.0 57 1.5
 56
 57 58 1.0 65 1.5
 58
 59 60 1.0 67 1.5
 60
 61 62 1.0 69 1.5
 62
 63 64 1.0
 64
 65 66 1.0
 66
 67 68 1.0 69 1.5
 68
 69 70 1.0
 70
 71 76 1.0 77 1.0
 72 80 1.0 86 1.0
 73 77 1.5 85 1.5 95 1.5
 74 81 1.0 83 1.5 86 1.5
 75 85 1.5 87 1.5 96 1.5
 76 79 1.5 83 1.5
 77 93 1.5
 78 85 1.5 89 1.5 98 1.5
 79 84 1.5 95 1.0
 80 82 1.5 105 1.5
 81 82 1.5 103 1.5
 82 140 1.5
 83 100 1.0
 84 86 1.5 102 1.0
 85
 86
 87 88 1.0 93 2.0
 88
 89 90 1.0 91 2.0
 90
 91 92 1.0 95 1.5
 92
 93 94 1.0
 94
 95
 96 97 1.0 109 1.5
 97
 98 99 1.0 109 1.5
 99
 100 118 1.5 120 1.5
 101 107 1.5 116 1.5 140 1.5
 102 113 1.5 130 1.5
 103 104 1.0 116 2.0
 104
 105 106 1.0 111 2.0
 106
 107 108 1.0 132 1.5
 108
 109 110 1.0
 110
 111 112 1.0 115 1.5
 112
 113 114 1.0 128 1.5
 114
 115 122 1.5 140 1.5
 116 117 1.0
 117
 118 119 1.0 124 1.5
 119
 120 121 1.0 134 1.5
 121
 122 123 1.0 132 1.5
 123
 124 125 1.0 126 1.5
 125
 126 127 1.0 134 1.5
 127
 128 129 1.0 136 1.5
 129
 130 131 1.0 138 1.5
 131
 132 133 1.0
 133
 134 135 1.0
 135
 136 137 1.0 138 1.5
 137
 138 139 1.0
 139
 140

















