%chk=/oasis/projects/nsf/lhu120/cmw414/rc_slip_y_90/1_6A/dimer/dimer.chk
%mem=110GB
#p b3lyp/6-311g(d,p) nosymm pop=full iop(3/33=1) punch=mo

c47

2 1
 O                  1.86343256   -2.18814168   -0.63312396
 O                 -1.87688744    1.76594132   -0.63317696
 C                  3.69461456   -0.67140268   -0.87047896
 C                 -1.39648944   -0.60712468   -0.87219696
 C                  5.97175156   -1.62878468   -0.73581696
 C                  0.95630456   -1.17504168   -0.77241696
 C                  3.19421256   -1.96292068   -0.63793396
 C                  5.65376956    0.77013232   -1.23999596
 C                  1.38305156    0.18492932   -0.87218096
 C                 -3.20766744    1.54071032   -0.63799196
 C                 -2.81321944   -0.85705968   -1.03609996
 C                 -3.70805744    0.24918032   -0.87049696
 C                 -0.37497644   -1.59266368   -0.78251796
 C                  0.36153156    1.17047132   -0.78252296
 C                  5.10807156   -0.51188368   -0.94441996
 C                 -0.96975044    0.75284632   -0.77244796
 C                  5.39488456   -2.90675768   -0.47207296
 H                  6.04966056   -3.75780568   -0.31297796
 C                  4.74462556    1.84550032   -1.48258496
 H                  5.14791656    2.81613132   -1.75583896
 C                  3.38157356    1.68676032   -1.38711396
 H                  2.74968056    2.53497832   -1.59754396
 C                  4.02720956   -3.07643968   -0.43155996
 H                  3.57365556   -4.04439768   -0.25108496
 C                 -5.12151244    0.08963932   -0.94441896
 C                  2.79978656    0.43484332   -1.03611196
 C                  7.36964356   -1.42936968   -0.80567596
 H                  8.03205756   -2.27390668   -0.64047896
 C                  7.05237556    0.92132132   -1.30766596
 H                  7.47035056    1.89702532   -1.53701096
 C                 -0.64793744   -3.04866968   -0.59509396
 C                 -5.66719544   -1.19239768   -1.23993096
 C                  0.63446856    2.62647732   -0.59506596
 C                 -3.39498944   -2.10900768   -1.38701396
 H                 -2.76308144   -2.95723068   -1.59738596
 C                 -4.04067744    2.65422632   -0.43164996
 H                 -3.58713344    3.62219432   -0.25120396
 C                 -7.06580044   -1.34360768   -1.30758296
 H                 -7.48376544   -2.31932768   -1.53687896
 C                  7.89727656   -0.17032768   -1.08596396
 H                  8.97295756   -0.03707868   -1.13791896
 C                 -5.40835044    2.48452732   -0.47215796
 H                 -6.06313544    3.33557232   -0.31308796
 C                  1.19132356    3.07285032    0.61237504
 H                  1.43075056    2.35253132    1.38925504
 C                 -5.98520444    1.20653832   -0.73585396
 C                 -4.75804044   -2.26777068   -1.48246496
 H                 -5.16132144   -3.23842268   -1.75565596
 C                 -1.20495544   -3.49503768    0.61227204
 H                 -1.44447744   -2.77471768    1.38912204
 C                 -0.33428944   -3.98126668   -1.59421096
 H                  0.10494656   -3.63898068   -2.52632896
 C                 -7.38309444    1.00710232   -0.80569496
 H                 -8.04551744    1.85163832   -0.64052696
 C                 -1.46487044   -4.85334768    0.80924704
 H                 -1.90033044   -5.18805568    1.74603204
 C                 -1.16705344   -5.77762768   -0.19748196
 H                 -1.37357744   -6.83295368   -0.04661296
 C                  1.45120356    4.43116132    0.80938404
 H                  1.88654356    4.76587132    1.74622404
 C                  0.32092856    3.55907532   -1.59421596
 H                 -0.11819244    3.21678732   -2.52638696
 C                 -7.91071344   -0.25195768   -1.08592496
 H                 -8.98639244   -0.38522368   -1.13786596
 C                 -0.59829944   -5.33868768   -1.39838196
 H                 -0.36076744   -6.05187768   -2.18204296
 C                  1.15351056    5.35543932   -0.19738296
 H                  1.36000956    6.41076732   -0.04648696
 C                  0.58490756    4.91649632   -1.39835396
 H                  0.34746656    5.62968632   -2.18204196
 O                 12.93327322   -2.67522430    3.20361293
 O                  8.93683877    0.73804934    1.78839535
 C                 14.66233887   -1.22947233    2.40976449
 C                  9.57909937   -1.51873200    2.43166381
 C                 16.99599370   -1.91275319    2.86501108
 C                 11.96270100   -1.84821633    2.71096424
 C                 14.24586177   -2.37695725    3.10425948
 C                 16.52629420    0.10682621    1.51935392
 C                 12.29891914   -0.59359991    2.11558033
 C                  7.62440973    0.43624650    1.87879819
 C                  8.18520674   -1.90762679    2.38391688
 C                  7.21562032   -0.88163853    2.14065452
 C                 10.66275515   -2.33051809    2.86699331
 C                 11.21229650    0.28389580    1.84708967
 C                 16.06295202   -1.01184608    2.26942246
 C                  9.91201689   -0.19101652    2.02188988
 C                 16.50181121   -3.04146899    3.58427163
 H                 17.20944445   -3.72810977    4.03825969
 C                 15.55124177    0.95363078    0.90779579
 H                 15.89302005    1.78179218    0.29397805
 C                 14.20050585    0.74806393    1.06741591
 H                 13.51673792    1.41483539    0.56649620
 C                 15.14810374   -3.27764172    3.69681808
 H                 14.75753436   -4.14075449    4.22380675
 C                 13.69822853   -0.32483946    1.85834606
 C                 18.37833744   -1.65767491    2.71398280
 H                 19.09305332   -2.33551563    3.17118981
 C                 17.91254664    0.31800439    1.38803734
 H                 18.26790921    1.16796559    0.81307306
 C                 10.48494659   -3.63161141    3.57771772
 C                  5.36388001   -2.48872027    2.34362358
 C                 11.38389431    1.72234024    1.48512286
 C                  7.69453246   -3.23773299    2.52185533
 H                  8.38526035   -4.05868583    2.63129837
 C                  6.71534379    1.48814243    1.67019665
 H                  7.09994611    2.48350174    1.47897458
 C                  3.97986325   -2.74949854    2.34905578
 H                  3.63208087   -3.76751551    2.49734529
 C                 18.82494533   -0.55595561    1.98672722
 H                 19.88998624   -0.37775783    1.87959344
 C                  5.36297657    1.22226875    1.70737427
 H                  4.65008375    2.02547871    1.54938103
 C                 11.88957421    2.61703744    2.43961481
 H                 12.16389109    2.24964260    3.42424599
 C                  4.87751266   -0.09970989    1.93595529
 C                  6.34694993   -3.51327308    2.50386629
 C                  9.93925125   -3.64155332    4.86975637
 H                  9.63919772   -2.70489247    5.33058385
 C                 10.87684613   -4.84161883    2.98725703
 H                 11.30747442   -4.83546824    1.99053571
 C                  3.49747786   -0.40599224    1.95702625
 H                  2.77730092    0.39288946    1.80716317
 C                  9.76775149   -4.84759846    5.55342583
 H                  9.34030524   -4.84474883    6.55167559
 C                 10.14342595   -6.05376011    4.95298055
 H                 10.00564206   -6.99189372    5.48217570
 C                 12.05453691    3.96743304    2.12247448
 H                 12.45094216    4.65105504    2.86728634
 C                 11.02508062    2.20021037    0.21656464
 H                 10.62533429    1.51100843   -0.52109019
 C                  3.06013559   -1.71309564    2.16283005
 C                 10.70122047   -6.04753905    3.66957226
 H                 10.99892323   -6.98021527    3.19981262
 C                 11.71221581    4.43587595    0.84973404
 H                 11.84499447    5.48457346    0.60127485
 C                 11.19421113    3.54964025   -0.10135435
 H                 10.92246572    3.90806125   -1.08972366
 C                  5.81745087   -1.15346061    2.14344545
 H                  6.01910890   -4.52649774    2.60777030
 H                  2.01165437   -1.92635668    2.17316771

 1 6 1.0 7 1.0
 2 10 1.0 16 1.0
 3 7 1.5 15 1.5 26 1.5
 4 11 1.0 13 1.5 16 1.5
 5 15 1.5 17 1.5 27 1.5
 6 9 1.5 13 1.5
 7 23 1.5
 8 15 1.5 19 1.5 29 1.5
 9 14 1.5 26 1.0
 10 12 1.5 36 1.5
 11 12 1.5 34 1.5
 12 25 1.5
 13 31 1.0
 14 16 1.5 33 1.0
 15
 16
 17 18 1.0 23 2.0
 18
 19 20 1.0 21 2.0
 20
 21 22 1.0 26 1.5
 22
 23 24 1.0
 24
 25 32 1.5 46 1.5
 26
 27 28 1.0 40 1.5
 28
 29 30 1.0 40 1.5
 30
 31 49 1.5 51 1.5
 32 38 1.5 47 1.5
 33 44 1.5 61 1.5
 34 35 1.0 47 2.0
 35
 36 37 1.0 42 2.0
 37
 38 39 1.0 63 1.5
 39
 40 41 1.0
 41
 42 43 1.0 46 1.5
 43
 44 45 1.0 59 1.5
 45
 46 53 1.5
 47 48 1.0
 48
 49 50 1.0 55 1.5
 50
 51 52 1.0 65 1.5
 52
 53 54 1.0 63 1.5
 54
 55 56 1.0 57 1.5
 56
 57 58 1.0 65 1.5
 58
 59 60 1.0 67 1.5
 60
 61 62 1.0 69 1.5
 62
 63 64 1.0
 64
 65 66 1.0
 66
 67 68 1.0 69 1.5
 68
 69 70 1.0
 70
 71 76 1.0 77 1.0
 72 80 1.0 86 1.0
 73 77 1.5 85 1.5 95 1.5
 74 81 1.0 83 1.5 86 1.5
 75 85 1.5 87 1.5 96 1.5
 76 79 1.5 83 1.5
 77 93 1.5
 78 85 1.5 89 1.5 98 1.5
 79 84 1.5 95 1.0
 80 82 1.5 105 1.5
 81 82 1.5 103 1.5
 82 140 1.5
 83 100 1.0
 84 86 1.5 102 1.0
 85
 86
 87 88 1.0 93 2.0
 88
 89 90 1.0 91 2.0
 90
 91 92 1.0 95 1.5
 92
 93 94 1.0
 94
 95
 96 97 1.0 109 1.5
 97
 98 99 1.0 109 1.5
 99
 100 118 1.5 120 1.5
 101 107 1.5 116 1.5 140 1.5
 102 113 1.5 130 1.5
 103 104 1.0 116 2.0
 104
 105 106 1.0 111 2.0
 106
 107 108 1.0 132 1.5
 108
 109 110 1.0
 110
 111 112 1.0 115 1.5
 112
 113 114 1.0 128 1.5
 114
 115 122 1.5 140 1.5
 116 117 1.0
 117
 118 119 1.0 124 1.5
 119
 120 121 1.0 134 1.5
 121
 122 123 1.0 132 1.5
 123
 124 125 1.0 126 1.5
 125
 126 127 1.0 134 1.5
 127
 128 129 1.0 136 1.5
 129
 130 131 1.0 138 1.5
 131
 132 133 1.0
 133
 134 135 1.0
 135
 136 137 1.0 138 1.5
 137
 138 139 1.0
 139
 140























