%chk=/oasis/projects/nsf/lhu120/cmw414/pent_stack/3_2A/dimer/dimer.chk
%nprocshared=24
%mem=110GB
#p b3lyp/6-311g(d,p) nosymm pop=full iop(3/33=1) punch=mo

c47

0 1
 C                 -8.71269653   -6.57702505    3.64379411
 C                 -8.68469653   -5.72102505    2.58779411
 C                 -8.06369653   -6.03902505    1.35279411
 C                 -8.04869653   -5.14002505    0.26779411
 C                 -7.39369653   -5.47302505   -0.95020589
 C                 -7.34469653   -4.60902505   -2.03220589
 C                 -6.79669653   -6.81702505   -1.08420589
 C                 -6.91169653   -7.66102505   -0.02620589
 C                 -7.43269653   -7.35702505    1.21879411
 C                 -7.55869653   -8.22602505    2.30979411
 C                 -8.07069653   -7.90902505    3.51479411
 H                 -9.20269653   -6.25802505    4.71079411
 H                 -9.09369653   -4.69702505    2.68079411
 H                 -8.48269653   -4.12702505    0.40379411
 H                 -7.81169653   -3.59102505   -1.88720589
 H                 -6.45369653   -8.67202505   -0.11820589
 H                 -7.10169653   -9.23202505    2.23079411
 H                 -8.08169653   -8.58802505    4.39179411
 C                 -6.74469653   -4.92802505   -3.27020589
 C                 -6.19669653   -7.13602505   -2.32220589
 C                 -6.14669653   -6.27302505   -3.40420589
 C                 -6.62969653   -4.08502505   -4.32820589
 H                 -5.72869653   -8.15502505   -2.46720589
 C                 -5.49269653   -6.60602505   -4.62220589
 C                 -6.10769653   -4.38902505   -5.57320589
 H                 -7.08769653   -3.07402505   -4.23620589
 C                 -5.47769653   -5.70702505   -5.70720589
 H                 -5.05869653   -7.61802505   -4.75820589
 C                 -5.98269653   -3.52002505   -6.66420589
 C                 -4.85669653   -6.02402505   -6.94220589
 C                 -5.47069653   -3.83702505   -7.86920589
 H                 -6.43969653   -2.51402505   -6.58520589
 C                 -4.82869653   -5.16902505   -7.99820589
 H                 -4.44769653   -7.04902505   -7.03520589
 H                 -5.45869653   -3.15802505   -8.74620589
 H                 -4.33869653   -5.48802505   -9.06520589
 C                 -5.90990722   -5.42907333    4.67653660
 C                 -5.88190722   -4.57307333    3.62053660
 C                 -5.26090722   -4.89107333    2.38553660
 C                 -5.24590722   -3.99207333    1.30053660
 C                 -4.59090722   -4.32507333    0.08253660
 C                 -4.54190722   -3.46107333   -0.99946340
 C                 -3.99390722   -5.66907333   -0.05146340
 C                 -4.10890722   -6.51307333    1.00653660
 C                 -4.62990722   -6.20907333    2.25153660
 C                 -4.75590722   -7.07807333    3.34253660
 C                 -5.26790722   -6.76107333    4.54753660
 H                 -6.39990722   -5.11007333    5.74353660
 H                 -6.29090722   -3.54907333    3.71353660
 H                 -5.67990722   -2.97907333    1.43653660
 H                 -5.00890722   -2.44307333   -0.85446340
 H                 -3.65090722   -7.52407333    0.91453660
 H                 -4.29890722   -8.08407333    3.26353660
 H                 -5.27890722   -7.44007333    5.42453660
 C                 -3.94190722   -3.78007333   -2.23746340
 C                 -3.39390722   -5.98807333   -1.28946340
 C                 -3.34390722   -5.12507333   -2.37146340
 C                 -3.82690722   -2.93707333   -3.29546340
 H                 -2.92590722   -7.00707333   -1.43446340
 C                 -2.68990722   -5.45807333   -3.58946340
 C                 -3.30490722   -3.24107333   -4.54046340
 H                 -4.28490722   -1.92607333   -3.20346340
 C                 -2.67490722   -4.55907333   -4.67446340
 H                 -2.25590722   -6.47007333   -3.72546340
 C                 -3.17990722   -2.37207333   -5.63146340
 C                 -2.05390722   -4.87607333   -5.90946340
 C                 -2.66790722   -2.68907333   -6.83646340
 H                 -3.63690722   -1.36607333   -5.55246340
 C                 -2.02590722   -4.02107333   -6.96546340
 H                 -1.64490722   -5.90107333   -6.00246340
 H                 -2.65590722   -2.01007333   -7.71346340
 H                 -1.53590722   -4.34007333   -8.03246340

 1 2 2.0 11 1.0 12 1.0
 2 3 1.5 13 1.0
 3 4 1.5 9 1.0
 4 5 1.5 14 1.0
 5 6 2.0 7 1.0
 6 15 1.0 19 1.5
 7 8 2.0 20 1.5
 8 9 2.0 16 1.0
 9 10 1.5
 10 11 2.0 17 1.0
 11 18 1.0
 12
 13
 14
 15
 16
 17
 18
 19 21 1.0 22 2.0
 20 21 2.0 23 1.0
 21 24 1.5
 22 25 2.0 26 1.0
 23
 24 27 1.5 28 1.0
 25 27 1.0 29 1.5
 26
 27 30 1.5
 28
 29 31 2.0 32 1.0
 30 33 2.0 34 1.0
 31 33 1.0 35 1.0
 32
 33 36 1.0
 34
 35
 36
 37 38 2.0 47 1.0 48 1.0
 38 39 1.5 49 1.0
 39 40 1.5 45 1.0
 40 41 1.5 50 1.0
 41 42 2.0 43 1.0
 42 51 1.0 55 1.5
 43 44 2.0 56 1.5
 44 45 2.0 52 1.0
 45 46 1.5
 46 47 2.0 53 1.0
 47 54 1.0
 48
 49
 50
 51
 52
 53
 54
 55 57 1.0 58 2.0
 56 57 2.0 59 1.0
 57 60 1.5
 58 61 2.0 62 1.0
 59
 60 63 1.5 64 1.0
 61 63 1.0 65 1.5
 62
 63 66 1.5
 64
 65 67 2.0 68 1.0
 66 69 2.0 70 1.0
 67 69 1.0 71 1.0
 68
 69 72 1.0
 70
 71
 72


