%chk=/oasis/projects/nsf/lhu120/cmw414/pent_y_stack/3_5A/dimer/dimer.chk
%nprocshared=24
%mem=110GB
#p b3lyp/6-311g(d,p) nosymm pop=full iop(3/33=1) punch=mo

c47

0 1
 C                 -7.29349044   -9.76072871    3.32774812
 C                 -7.26549044   -8.90472871    2.27174812
 C                 -6.64449044   -9.22272871    1.03674812
 C                 -6.62949044   -8.32372871   -0.04825188
 C                 -5.97449044   -8.65672871   -1.26625188
 C                 -5.92549044   -7.79272871   -2.34825188
 C                 -5.37749044  -10.00072871   -1.40025188
 C                 -5.49249044  -10.84472871   -0.34225188
 C                 -6.01349044  -10.54072871    0.90274812
 C                 -6.13949044  -11.40972871    1.99374812
 C                 -6.65149044  -11.09272871    3.19874812
 H                 -7.78349044   -9.44172871    4.39474812
 H                 -7.67449044   -7.88072871    2.36474812
 H                 -7.06349044   -7.31072871    0.08774812
 H                 -6.39249044   -6.77472871   -2.20325188
 H                 -5.03449044  -11.85572871   -0.43425188
 H                 -5.68249044  -12.41572871    1.91474812
 H                 -6.66249044  -11.77172871    4.07574812
 C                 -5.32549044   -8.11172871   -3.58625188
 C                 -4.77749044  -10.31972871   -2.63825188
 C                 -4.72749044   -9.45672871   -3.72025188
 C                 -5.21049044   -7.26872871   -4.64425188
 H                 -4.30949044  -11.33872871   -2.78325188
 C                 -4.07349044   -9.78972871   -4.93825188
 C                 -4.68849044   -7.57272871   -5.88925188
 H                 -5.66849044   -6.25772871   -4.55225188
 C                 -4.05849044   -8.89072871   -6.02325188
 H                 -3.63949044  -10.80172871   -5.07425188
 C                 -4.56349044   -6.70372871   -6.98025188
 C                 -3.43749044   -9.20772871   -7.25825188
 C                 -4.05149044   -7.02072871   -8.18525188
 H                 -5.02049044   -5.69772871   -6.90125188
 C                 -3.40949044   -8.35272871   -8.31425188
 H                 -3.02849044  -10.23272871   -7.35125188
 H                 -4.03949044   -6.34172871   -9.06225188
 H                 -2.91949044   -8.67172871   -9.38125188
 C                 -5.55955519   -5.28557798    4.80563065
 C                 -5.53155519   -4.42957798    3.74963065
 C                 -4.91055519   -4.74757798    2.51463065
 C                 -4.89555519   -3.84857798    1.42963065
 C                 -4.24055519   -4.18157798    0.21163065
 C                 -4.19155519   -3.31757798   -0.87036935
 C                 -3.64355519   -5.52557798    0.07763065
 C                 -3.75855519   -6.36957798    1.13563065
 C                 -4.27955519   -6.06557798    2.38063065
 C                 -4.40555519   -6.93457798    3.47163065
 C                 -4.91755519   -6.61757798    4.67663065
 H                 -6.04955519   -4.96657798    5.87263065
 H                 -5.94055519   -3.40557798    3.84263065
 H                 -5.32955519   -2.83557798    1.56563065
 H                 -4.65855519   -2.29957798   -0.72536935
 H                 -3.30055519   -7.38057798    1.04363065
 H                 -3.94855519   -7.94057798    3.39263065
 H                 -4.92855519   -7.29657798    5.55363065
 C                 -3.59155519   -3.63657798   -2.10836935
 C                 -3.04355519   -5.84457798   -1.16036935
 C                 -2.99355519   -4.98157798   -2.24236935
 C                 -3.47655519   -2.79357798   -3.16636935
 H                 -2.57555519   -6.86357798   -1.30536935
 C                 -2.33955519   -5.31457798   -3.46036935
 C                 -2.95455519   -3.09757798   -4.41136935
 H                 -3.93455519   -1.78257798   -3.07436935
 C                 -2.32455519   -4.41557798   -4.54536935
 H                 -1.90555519   -6.32657798   -3.59636935
 C                 -2.82955519   -2.22857798   -5.50236935
 C                 -1.70355519   -4.73257798   -5.78036935
 C                 -2.31755519   -2.54557798   -6.70736935
 H                 -3.28655519   -1.22257798   -5.42336935
 C                 -1.67555519   -3.87757798   -6.83636935
 H                 -1.29455519   -5.75757798   -5.87336935
 H                 -2.30555519   -1.86657798   -7.58436935
 H                 -1.18555519   -4.19657798   -7.90336935

 1 2 2.0 11 1.0 12 1.0
 2 3 1.5 13 1.0
 3 4 1.5 9 1.0
 4 5 1.5 14 1.0
 5 6 2.0 7 1.0
 6 15 1.0 19 1.5
 7 8 2.0 20 1.5
 8 9 2.0 16 1.0
 9 10 1.5
 10 11 2.0 17 1.0
 11 18 1.0
 12
 13
 14
 15
 16
 17
 18
 19 21 1.0 22 2.0
 20 21 2.0 23 1.0
 21 24 1.5
 22 25 2.0 26 1.0
 23
 24 27 1.5 28 1.0
 25 27 1.0 29 1.5
 26
 27 30 1.5
 28
 29 31 2.0 32 1.0
 30 33 2.0 34 1.0
 31 33 1.0 35 1.0
 32
 33 36 1.0
 34
 35
 36
 37 38 2.0 47 1.0 48 1.0
 38 39 1.5 49 1.0
 39 40 1.5 45 1.0
 40 41 1.5 50 1.0
 41 42 2.0 43 1.0
 42 51 1.0 55 1.5
 43 44 2.0 56 1.5
 44 45 2.0 52 1.0
 45 46 1.5
 46 47 2.0 53 1.0
 47 54 1.0
 48
 49
 50
 51
 52
 53
 54
 55 57 1.0 58 2.0
 56 57 2.0 59 1.0
 57 60 1.5
 58 61 2.0 62 1.0
 59
 60 63 1.5 64 1.0
 61 63 1.0 65 1.5
 62
 63 66 1.5
 64
 65 67 2.0 68 1.0
 66 69 2.0 70 1.0
 67 69 1.0 71 1.0
 68
 69 72 1.0
 70
 71
 72


