%chk=/oasis/projects/nsf/lhu120/cmw414/rc_slip_x_new/5_0A/dimer/dimer.chk
%mem=110GB
#p b3lyp/6-311g(d,p) nosymm pop=full iop(3/33=1) punch=mo

c47

2 1
 O                  1.86343256   -2.18814168   -0.63312396
 O                 -1.87688744    1.76594132   -0.63317696
 C                  3.69461456   -0.67140268   -0.87047896
 C                 -1.39648944   -0.60712468   -0.87219696
 C                  5.97175156   -1.62878468   -0.73581696
 C                  0.95630456   -1.17504168   -0.77241696
 C                  3.19421256   -1.96292068   -0.63793396
 C                  5.65376956    0.77013232   -1.23999596
 C                  1.38305156    0.18492932   -0.87218096
 C                 -3.20766744    1.54071032   -0.63799196
 C                 -2.81321944   -0.85705968   -1.03609996
 C                 -3.70805744    0.24918032   -0.87049696
 C                 -0.37497644   -1.59266368   -0.78251796
 C                  0.36153156    1.17047132   -0.78252296
 C                  5.10807156   -0.51188368   -0.94441996
 C                 -0.96975044    0.75284632   -0.77244796
 C                  5.39488456   -2.90675768   -0.47207296
 H                  6.04966056   -3.75780568   -0.31297796
 C                  4.74462556    1.84550032   -1.48258496
 H                  5.14791656    2.81613132   -1.75583896
 C                  3.38157356    1.68676032   -1.38711396
 H                  2.74968056    2.53497832   -1.59754396
 C                  4.02720956   -3.07643968   -0.43155996
 H                  3.57365556   -4.04439768   -0.25108496
 C                 -5.12151244    0.08963932   -0.94441896
 C                  2.79978656    0.43484332   -1.03611196
 C                  7.36964356   -1.42936968   -0.80567596
 H                  8.03205756   -2.27390668   -0.64047896
 C                  7.05237556    0.92132132   -1.30766596
 H                  7.47035056    1.89702532   -1.53701096
 C                 -0.64793744   -3.04866968   -0.59509396
 C                 -5.66719544   -1.19239768   -1.23993096
 C                  0.63446856    2.62647732   -0.59506596
 C                 -3.39498944   -2.10900768   -1.38701396
 H                 -2.76308144   -2.95723068   -1.59738596
 C                 -4.04067744    2.65422632   -0.43164996
 H                 -3.58713344    3.62219432   -0.25120396
 C                 -7.06580044   -1.34360768   -1.30758296
 H                 -7.48376544   -2.31932768   -1.53687896
 C                  7.89727656   -0.17032768   -1.08596396
 H                  8.97295756   -0.03707868   -1.13791896
 C                 -5.40835044    2.48452732   -0.47215796
 H                 -6.06313544    3.33557232   -0.31308796
 C                  1.19132356    3.07285032    0.61237504
 H                  1.43075056    2.35253132    1.38925504
 C                 -5.98520444    1.20653832   -0.73585396
 C                 -4.75804044   -2.26777068   -1.48246496
 H                 -5.16132144   -3.23842268   -1.75565596
 C                 -1.20495544   -3.49503768    0.61227204
 H                 -1.44447744   -2.77471768    1.38912204
 C                 -0.33428944   -3.98126668   -1.59421096
 H                  0.10494656   -3.63898068   -2.52632896
 C                 -7.38309444    1.00710232   -0.80569496
 H                 -8.04551744    1.85163832   -0.64052696
 C                 -1.46487044   -4.85334768    0.80924704
 H                 -1.90033044   -5.18805568    1.74603204
 C                 -1.16705344   -5.77762768   -0.19748196
 H                 -1.37357744   -6.83295368   -0.04661296
 C                  1.45120356    4.43116132    0.80938404
 H                  1.88654356    4.76587132    1.74622404
 C                  0.32092856    3.55907532   -1.59421596
 H                 -0.11819244    3.21678732   -2.52638696
 C                 -7.91071344   -0.25195768   -1.08592496
 H                 -8.98639244   -0.38522368   -1.13786596
 C                 -0.59829944   -5.33868768   -1.39838196
 H                 -0.36076744   -6.05187768   -2.18204296
 C                  1.15351056    5.35543932   -0.19738296
 H                  1.36000956    6.41076732   -0.04648696
 C                  0.58490756    4.91649632   -1.39835396
 H                  0.34746656    5.62968632   -2.18204196
 O                 17.14884261   -0.24642660    2.96778935
 O                 13.15240816    3.16684704    1.55257177
 C                 18.87790826    1.19932537    2.17394091
 C                 13.79466876    0.91006570    2.19584023
 C                 21.21156309    0.51604451    2.62918750
 C                 16.17827039    0.58058137    2.47514066
 C                 18.46143116    0.05184045    2.86843590
 C                 20.74186359    2.53562391    1.28353034
 C                 16.51448853    1.83519779    1.87975675
 C                 11.83997912    2.86504420    1.64297461
 C                 12.40077613    0.52117091    2.14809330
 C                 11.43118971    1.54715917    1.90483094
 C                 14.87832454    0.09827961    2.63116973
 C                 15.42786589    2.71269350    1.61126609
 C                 20.27852141    1.41695162    2.03359888
 C                 14.12758628    2.23778118    1.78606630
 C                 20.71738060   -0.61267129    3.34844805
 H                 21.42501384   -1.29931207    3.80243611
 C                 19.76681116    3.38242848    0.67197221
 H                 20.10858944    4.21058988    0.05815447
 C                 18.41607524    3.17686163    0.83159233
 H                 17.73230731    3.84363309    0.33067262
 C                 19.36367313   -0.84884402    3.46099450
 H                 18.97310375   -1.71195679    3.98798317
 C                 17.91379792    2.10395824    1.62252248
 C                 22.59390683    0.77112279    2.47815922
 H                 23.30862271    0.09328207    2.93536623
 C                 22.12811603    2.74680209    1.15221376
 H                 22.48347860    3.59676329    0.57724948
 C                 14.70051598   -1.20281371    3.34189414
 C                  9.57944940   -0.05992257    2.10780000
 C                 15.59946370    4.15113794    1.24929928
 C                 11.91010185   -0.80893529    2.28603175
 H                 12.60082974   -1.62988813    2.39547479
 C                 10.93091318    3.91694013    1.43437307
 H                 11.31551550    4.91229944    1.24315100
 C                  8.19543264   -0.32070084    2.11323220
 H                  7.84765026   -1.33871781    2.26152171
 C                 23.04051472    1.87284209    1.75090364
 H                 24.10555563    2.05103987    1.64376986
 C                  9.57854596    3.65106645    1.47155069
 H                  8.86565314    4.45427641    1.31355745
 C                 16.10514360    5.04583514    2.20379123
 H                 16.37946048    4.67844030    3.18842241
 C                  9.09308205    2.32908781    1.70013171
 C                 10.56251932   -1.08447538    2.26804271
 C                 14.15482064   -1.21275562    4.63393279
 H                 13.85476711   -0.27609477    5.09476027
 C                 15.09241552   -2.41282113    2.75143345
 H                 15.52304381   -2.40667054    1.75471213
 C                  7.71304725    2.02280546    1.72120267
 H                  6.99287031    2.82168716    1.57133959
 C                 13.98332088   -2.41880076    5.31760225
 H                 13.55587463   -2.41595113    6.31585201
 C                 14.35899534   -3.62496241    4.71715697
 H                 14.22121145   -4.56309602    5.24635212
 C                 16.27010630    6.39623074    1.88665090
 H                 16.66651155    7.07985274    2.63146276
 C                 15.24065001    4.62900807   -0.01925894
 H                 14.84090368    3.93980613   -0.75691377
 C                  7.27570498    0.71570206    1.92700647
 C                 14.91678986   -3.61874135    3.43374868
 H                 15.21449262   -4.55141757    2.96398904
 C                 15.92778520    6.86467365    0.61391046
 H                 16.06056386    7.91337116    0.36545127
 C                 15.40978052    5.97843795   -0.33717793
 H                 15.13803511    6.33685895   -1.32554724
 C                 10.03302026    1.27533709    1.90762187
 H                 10.23467829   -2.09770004    2.37194672
 H                  6.22722376    0.50244102    1.93734413

 1 6 1.0 7 1.0
 2 10 1.0 16 1.0
 3 7 1.5 15 1.5 26 1.5
 4 11 1.0 13 1.5 16 1.5
 5 15 1.5 17 1.5 27 1.5
 6 9 1.5 13 1.5
 7 23 1.5
 8 15 1.5 19 1.5 29 1.5
 9 14 1.5 26 1.0
 10 12 1.5 36 1.5
 11 12 1.5 34 1.5
 12 25 1.5
 13 31 1.0
 14 16 1.5 33 1.0
 15
 16
 17 18 1.0 23 2.0
 18
 19 20 1.0 21 2.0
 20
 21 22 1.0 26 1.5
 22
 23 24 1.0
 24
 25 32 1.5 46 1.5
 26
 27 28 1.0 40 1.5
 28
 29 30 1.0 40 1.5
 30
 31 49 1.5 51 1.5
 32 38 1.5 47 1.5
 33 44 1.5 61 1.5
 34 35 1.0 47 2.0
 35
 36 37 1.0 42 2.0
 37
 38 39 1.0 63 1.5
 39
 40 41 1.0
 41
 42 43 1.0 46 1.5
 43
 44 45 1.0 59 1.5
 45
 46 53 1.5
 47 48 1.0
 48
 49 50 1.0 55 1.5
 50
 51 52 1.0 65 1.5
 52
 53 54 1.0 63 1.5
 54
 55 56 1.0 57 1.5
 56
 57 58 1.0 65 1.5
 58
 59 60 1.0 67 1.5
 60
 61 62 1.0 69 1.5
 62
 63 64 1.0
 64
 65 66 1.0
 66
 67 68 1.0 69 1.5
 68
 69 70 1.0
 70
 71 76 1.0 77 1.0
 72 80 1.0 86 1.0
 73 77 1.5 85 1.5 95 1.5
 74 81 1.0 83 1.5 86 1.5
 75 85 1.5 87 1.5 96 1.5
 76 79 1.5 83 1.5
 77 93 1.5
 78 85 1.5 89 1.5 98 1.5
 79 84 1.5 95 1.0
 80 82 1.5 105 1.5
 81 82 1.5 103 1.5
 82 140 1.5
 83 100 1.0
 84 86 1.5 102 1.0
 85
 86
 87 88 1.0 93 2.0
 88
 89 90 1.0 91 2.0
 90
 91 92 1.0 95 1.5
 92
 93 94 1.0
 94
 95
 96 97 1.0 109 1.5
 97
 98 99 1.0 109 1.5
 99
 100 118 1.5 120 1.5
 101 107 1.5 116 1.5 140 1.5
 102 113 1.5 130 1.5
 103 104 1.0 116 2.0
 104
 105 106 1.0 111 2.0
 106
 107 108 1.0 132 1.5
 108
 109 110 1.0
 110
 111 112 1.0 115 1.5
 112
 113 114 1.0 128 1.5
 114
 115 122 1.5 140 1.5
 116 117 1.0
 117
 118 119 1.0 124 1.5
 119
 120 121 1.0 134 1.5
 121
 122 123 1.0 132 1.5
 123
 124 125 1.0 126 1.5
 125
 126 127 1.0 134 1.5
 127
 128 129 1.0 136 1.5
 129
 130 131 1.0 138 1.5
 131
 132 133 1.0
 133
 134 135 1.0
 135
 136 137 1.0 138 1.5
 137
 138 139 1.0
 139
 140













































