%chk=/oasis/projects/nsf/lhu120/cmw414/pent_stack/3_4A/dimer/dimer.chk
%nprocshared=24
%mem=110GB
#p b3lyp/6-311g(d,p) nosymm pop=full iop(3/33=1) punch=mo

c47

0 1
 C                 -8.71269653   -6.57702505    3.64379411
 C                 -8.68469653   -5.72102505    2.58779411
 C                 -8.06369653   -6.03902505    1.35279411
 C                 -8.04869653   -5.14002505    0.26779411
 C                 -7.39369653   -5.47302505   -0.95020589
 C                 -7.34469653   -4.60902505   -2.03220589
 C                 -6.79669653   -6.81702505   -1.08420589
 C                 -6.91169653   -7.66102505   -0.02620589
 C                 -7.43269653   -7.35702505    1.21879411
 C                 -7.55869653   -8.22602505    2.30979411
 C                 -8.07069653   -7.90902505    3.51479411
 H                 -9.20269653   -6.25802505    4.71079411
 H                 -9.09369653   -4.69702505    2.68079411
 H                 -8.48269653   -4.12702505    0.40379411
 H                 -7.81169653   -3.59102505   -1.88720589
 H                 -6.45369653   -8.67202505   -0.11820589
 H                 -7.10169653   -9.23202505    2.23079411
 H                 -8.08169653   -8.58802505    4.39179411
 C                 -6.74469653   -4.92802505   -3.27020589
 C                 -6.19669653   -7.13602505   -2.32220589
 C                 -6.14669653   -6.27302505   -3.40420589
 C                 -6.62969653   -4.08502505   -4.32820589
 H                 -5.72869653   -8.15502505   -2.46720589
 C                 -5.49269653   -6.60602505   -4.62220589
 C                 -6.10769653   -4.38902505   -5.57320589
 H                 -7.08769653   -3.07402505   -4.23620589
 C                 -5.47769653   -5.70702505   -5.70720589
 H                 -5.05869653   -7.61802505   -4.75820589
 C                 -5.98269653   -3.52002505   -6.66420589
 C                 -4.85669653   -6.02402505   -6.94220589
 C                 -5.47069653   -3.83702505   -7.86920589
 H                 -6.43969653   -2.51402505   -6.58520589
 C                 -4.82869653   -5.16902505   -7.99820589
 H                 -4.44769653   -7.04902505   -7.03520589
 H                 -5.45869653   -3.15802505   -8.74620589
 H                 -4.33869653   -5.48802505   -9.06520589
 C                 -5.73473270   -5.35732627    4.74108308
 C                 -5.70673270   -4.50132627    3.68508308
 C                 -5.08573270   -4.81932627    2.45008308
 C                 -5.07073270   -3.92032627    1.36508308
 C                 -4.41573270   -4.25332627    0.14708308
 C                 -4.36673270   -3.38932627   -0.93491692
 C                 -3.81873270   -5.59732627    0.01308308
 C                 -3.93373270   -6.44132627    1.07108308
 C                 -4.45473270   -6.13732627    2.31608308
 C                 -4.58073270   -7.00632627    3.40708308
 C                 -5.09273270   -6.68932627    4.61208308
 H                 -6.22473270   -5.03832627    5.80808308
 H                 -6.11573270   -3.47732627    3.77808308
 H                 -5.50473270   -2.90732627    1.50108308
 H                 -4.83373270   -2.37132627   -0.78991692
 H                 -3.47573270   -7.45232627    0.97908308
 H                 -4.12373270   -8.01232627    3.32808308
 H                 -5.10373270   -7.36832627    5.48908308
 C                 -3.76673270   -3.70832627   -2.17291692
 C                 -3.21873270   -5.91632627   -1.22491692
 C                 -3.16873270   -5.05332627   -2.30691692
 C                 -3.65173270   -2.86532627   -3.23091692
 H                 -2.75073270   -6.93532627   -1.36991692
 C                 -2.51473270   -5.38632627   -3.52491692
 C                 -3.12973270   -3.16932627   -4.47591692
 H                 -4.10973270   -1.85432627   -3.13891692
 C                 -2.49973270   -4.48732627   -4.60991692
 H                 -2.08073270   -6.39832627   -3.66091692
 C                 -3.00473270   -2.30032627   -5.56691692
 C                 -1.87873270   -4.80432627   -5.84491692
 C                 -2.49273270   -2.61732627   -6.77191692
 H                 -3.46173270   -1.29432627   -5.48791692
 C                 -1.85073270   -3.94932627   -6.90091692
 H                 -1.46973270   -5.82932627   -5.93791692
 H                 -2.48073270   -1.93832627   -7.64891692
 H                 -1.36073270   -4.26832627   -7.96791692

 1 2 2.0 11 1.0 12 1.0
 2 3 1.5 13 1.0
 3 4 1.5 9 1.0
 4 5 1.5 14 1.0
 5 6 2.0 7 1.0
 6 15 1.0 19 1.5
 7 8 2.0 20 1.5
 8 9 2.0 16 1.0
 9 10 1.5
 10 11 2.0 17 1.0
 11 18 1.0
 12
 13
 14
 15
 16
 17
 18
 19 21 1.0 22 2.0
 20 21 2.0 23 1.0
 21 24 1.5
 22 25 2.0 26 1.0
 23
 24 27 1.5 28 1.0
 25 27 1.0 29 1.5
 26
 27 30 1.5
 28
 29 31 2.0 32 1.0
 30 33 2.0 34 1.0
 31 33 1.0 35 1.0
 32
 33 36 1.0
 34
 35
 36
 37 38 2.0 47 1.0 48 1.0
 38 39 1.5 49 1.0
 39 40 1.5 45 1.0
 40 41 1.5 50 1.0
 41 42 2.0 43 1.0
 42 51 1.0 55 1.5
 43 44 2.0 56 1.5
 44 45 2.0 52 1.0
 45 46 1.5
 46 47 2.0 53 1.0
 47 54 1.0
 48
 49
 50
 51
 52
 53
 54
 55 57 1.0 58 2.0
 56 57 2.0 59 1.0
 57 60 1.5
 58 61 2.0 62 1.0
 59
 60 63 1.5 64 1.0
 61 63 1.0 65 1.5
 62
 63 66 1.5
 64
 65 67 2.0 68 1.0
 66 69 2.0 70 1.0
 67 69 1.0 71 1.0
 68
 69 72 1.0
 70
 71
 72


