%chk=/oasis/projects/nsf/lhu120/cmw414/pent_stack/3_6A/dimer/dimer.chk
%nprocshared=24
%mem=110GB
#p b3lyp/6-311g(d,p) nosymm pop=full iop(3/33=1) punch=mo

c47

0 1
 C                 -8.71269653   -6.57702505    3.64379411
 C                 -8.68469653   -5.72102505    2.58779411
 C                 -8.06369653   -6.03902505    1.35279411
 C                 -8.04869653   -5.14002505    0.26779411
 C                 -7.39369653   -5.47302505   -0.95020589
 C                 -7.34469653   -4.60902505   -2.03220589
 C                 -6.79669653   -6.81702505   -1.08420589
 C                 -6.91169653   -7.66102505   -0.02620589
 C                 -7.43269653   -7.35702505    1.21879411
 C                 -7.55869653   -8.22602505    2.30979411
 C                 -8.07069653   -7.90902505    3.51479411
 H                 -9.20269653   -6.25802505    4.71079411
 H                 -9.09369653   -4.69702505    2.68079411
 H                 -8.48269653   -4.12702505    0.40379411
 H                 -7.81169653   -3.59102505   -1.88720589
 H                 -6.45369653   -8.67202505   -0.11820589
 H                 -7.10169653   -9.23202505    2.23079411
 H                 -8.08169653   -8.58802505    4.39179411
 C                 -6.74469653   -4.92802505   -3.27020589
 C                 -6.19669653   -7.13602505   -2.32220589
 C                 -6.14669653   -6.27302505   -3.40420589
 C                 -6.62969653   -4.08502505   -4.32820589
 H                 -5.72869653   -8.15502505   -2.46720589
 C                 -5.49269653   -6.60602505   -4.62220589
 C                 -6.10769653   -4.38902505   -5.57320589
 H                 -7.08769653   -3.07402505   -4.23620589
 C                 -5.47769653   -5.70702505   -5.70720589
 H                 -5.05869653   -7.61802505   -4.75820589
 C                 -5.98269653   -3.52002505   -6.66420589
 C                 -4.85669653   -6.02402505   -6.94220589
 C                 -5.47069653   -3.83702505   -7.86920589
 H                 -6.43969653   -2.51402505   -6.58520589
 C                 -4.82869653   -5.16902505   -7.99820589
 H                 -4.44769653   -7.04902505   -7.03520589
 H                 -5.45869653   -3.15802505   -8.74620589
 H                 -4.33869653   -5.48802505   -9.06520589
 C                 -5.55955819   -5.28557921    4.80562956
 C                 -5.53155819   -4.42957921    3.74962956
 C                 -4.91055819   -4.74757921    2.51462956
 C                 -4.89555819   -3.84857921    1.42962956
 C                 -4.24055819   -4.18157921    0.21162956
 C                 -4.19155819   -3.31757921   -0.87037044
 C                 -3.64355819   -5.52557921    0.07762956
 C                 -3.75855819   -6.36957921    1.13562956
 C                 -4.27955819   -6.06557921    2.38062956
 C                 -4.40555819   -6.93457921    3.47162956
 C                 -4.91755819   -6.61757921    4.67662956
 H                 -6.04955819   -4.96657921    5.87262956
 H                 -5.94055819   -3.40557921    3.84262956
 H                 -5.32955819   -2.83557921    1.56562956
 H                 -4.65855819   -2.29957921   -0.72537044
 H                 -3.30055819   -7.38057921    1.04362956
 H                 -3.94855819   -7.94057921    3.39262956
 H                 -4.92855819   -7.29657921    5.55362956
 C                 -3.59155819   -3.63657921   -2.10837044
 C                 -3.04355819   -5.84457921   -1.16037044
 C                 -2.99355819   -4.98157921   -2.24237044
 C                 -3.47655819   -2.79357921   -3.16637044
 H                 -2.57555819   -6.86357921   -1.30537044
 C                 -2.33955819   -5.31457921   -3.46037044
 C                 -2.95455819   -3.09757921   -4.41137044
 H                 -3.93455819   -1.78257921   -3.07437044
 C                 -2.32455819   -4.41557921   -4.54537044
 H                 -1.90555819   -6.32657921   -3.59637044
 C                 -2.82955819   -2.22857921   -5.50237044
 C                 -1.70355819   -4.73257921   -5.78037044
 C                 -2.31755819   -2.54557921   -6.70737044
 H                 -3.28655819   -1.22257921   -5.42337044
 C                 -1.67555819   -3.87757921   -6.83637044
 H                 -1.29455819   -5.75757921   -5.87337044
 H                 -2.30555819   -1.86657921   -7.58437044
 H                 -1.18555819   -4.19657921   -7.90337044

 1 2 2.0 11 1.0 12 1.0
 2 3 1.5 13 1.0
 3 4 1.5 9 1.0
 4 5 1.5 14 1.0
 5 6 2.0 7 1.0
 6 15 1.0 19 1.5
 7 8 2.0 20 1.5
 8 9 2.0 16 1.0
 9 10 1.5
 10 11 2.0 17 1.0
 11 18 1.0
 12
 13
 14
 15
 16
 17
 18
 19 21 1.0 22 2.0
 20 21 2.0 23 1.0
 21 24 1.5
 22 25 2.0 26 1.0
 23
 24 27 1.5 28 1.0
 25 27 1.0 29 1.5
 26
 27 30 1.5
 28
 29 31 2.0 32 1.0
 30 33 2.0 34 1.0
 31 33 1.0 35 1.0
 32
 33 36 1.0
 34
 35
 36
 37 38 2.0 47 1.0 48 1.0
 38 39 1.5 49 1.0
 39 40 1.5 45 1.0
 40 41 1.5 50 1.0
 41 42 2.0 43 1.0
 42 51 1.0 55 1.5
 43 44 2.0 56 1.5
 44 45 2.0 52 1.0
 45 46 1.5
 46 47 2.0 53 1.0
 47 54 1.0
 48
 49
 50
 51
 52
 53
 54
 55 57 1.0 58 2.0
 56 57 2.0 59 1.0
 57 60 1.5
 58 61 2.0 62 1.0
 59
 60 63 1.5 64 1.0
 61 63 1.0 65 1.5
 62
 63 66 1.5
 64
 65 67 2.0 68 1.0
 66 69 2.0 70 1.0
 67 69 1.0 71 1.0
 68
 69 72 1.0
 70
 71
 72


