%chk=/oasis/projects/nsf/lhu120/cmw414/pent_slip_x/1_8A/dimer/dimer.chk
%nprocshared=24
%mem=110GB
#p b3lyp/6-311g(d,p) nosymm pop=full iop(3/33=1) punch=mo

c47

0 1
 C                 -8.23320623   -6.18230029    1.95433224
 C                 -8.20520623   -5.32630029    0.89833224
 C                 -7.58420623   -5.64430029   -0.33666776
 C                 -7.56920623   -4.74530029   -1.42166776
 C                 -6.91420623   -5.07830029   -2.63966776
 C                 -6.86520623   -4.21430029   -3.72166776
 C                 -6.31720623   -6.42230029   -2.77366776
 C                 -6.43220623   -7.26630029   -1.71566776
 C                 -6.95320623   -6.96230029   -0.47066776
 C                 -7.07920623   -7.83130029    0.62033224
 C                 -7.59120623   -7.51430029    1.82533224
 H                 -8.72320623   -5.86330029    3.02133224
 H                 -8.61420623   -4.30230029    0.99133224
 H                 -8.00320623   -3.73230029   -1.28566776
 H                 -7.33220623   -3.19630029   -3.57666776
 H                 -5.97420623   -8.27730029   -1.80766776
 H                 -6.62220623   -8.83730029    0.54133224
 H                 -7.60220623   -8.19330029    2.70233224
 C                 -6.26520623   -4.53330029   -4.95966776
 C                 -5.71720623   -6.74130029   -4.01166776
 C                 -5.66720623   -5.87830029   -5.09366776
 C                 -6.15020623   -3.69030029   -6.01766776
 H                 -5.24920623   -7.76030029   -4.15666776
 C                 -5.01320623   -6.21130029   -6.31166776
 C                 -5.62820623   -3.99430029   -7.26266776
 H                 -6.60820623   -2.67930029   -5.92566776
 C                 -4.99820623   -5.31230029   -7.39666776
 H                 -4.57920623   -7.22330029   -6.44766776
 C                 -5.50320623   -3.12530029   -8.35366776
 C                 -4.37720623   -5.62930029   -8.63166776
 C                 -4.99120623   -3.44230029   -9.55866776
 H                 -5.96020623   -2.11930029   -8.27466776
 C                 -4.34920623   -4.77430029   -9.68766776
 H                 -3.96820623   -6.65430029   -8.72466776
 H                 -4.97920623   -2.76330029  -10.43566776
 H                 -3.85920623   -5.09330029  -10.75466776
 C                 -5.55955519   -5.28557798    4.80563065
 C                 -5.53155519   -4.42957798    3.74963065
 C                 -4.91055519   -4.74757798    2.51463065
 C                 -4.89555519   -3.84857798    1.42963065
 C                 -4.24055519   -4.18157798    0.21163065
 C                 -4.19155519   -3.31757798   -0.87036935
 C                 -3.64355519   -5.52557798    0.07763065
 C                 -3.75855519   -6.36957798    1.13563065
 C                 -4.27955519   -6.06557798    2.38063065
 C                 -4.40555519   -6.93457798    3.47163065
 C                 -4.91755519   -6.61757798    4.67663065
 H                 -6.04955519   -4.96657798    5.87263065
 H                 -5.94055519   -3.40557798    3.84263065
 H                 -5.32955519   -2.83557798    1.56563065
 H                 -4.65855519   -2.29957798   -0.72536935
 H                 -3.30055519   -7.38057798    1.04363065
 H                 -3.94855519   -7.94057798    3.39263065
 H                 -4.92855519   -7.29657798    5.55363065
 C                 -3.59155519   -3.63657798   -2.10836935
 C                 -3.04355519   -5.84457798   -1.16036935
 C                 -2.99355519   -4.98157798   -2.24236935
 C                 -3.47655519   -2.79357798   -3.16636935
 H                 -2.57555519   -6.86357798   -1.30536935
 C                 -2.33955519   -5.31457798   -3.46036935
 C                 -2.95455519   -3.09757798   -4.41136935
 H                 -3.93455519   -1.78257798   -3.07436935
 C                 -2.32455519   -4.41557798   -4.54536935
 H                 -1.90555519   -6.32657798   -3.59636935
 C                 -2.82955519   -2.22857798   -5.50236935
 C                 -1.70355519   -4.73257798   -5.78036935
 C                 -2.31755519   -2.54557798   -6.70736935
 H                 -3.28655519   -1.22257798   -5.42336935
 C                 -1.67555519   -3.87757798   -6.83636935
 H                 -1.29455519   -5.75757798   -5.87336935
 H                 -2.30555519   -1.86657798   -7.58436935
 H                 -1.18555519   -4.19657798   -7.90336935

 1 2 2.0 11 1.0 12 1.0
 2 3 1.5 13 1.0
 3 4 1.5 9 1.0
 4 5 1.5 14 1.0
 5 6 2.0 7 1.0
 6 15 1.0 19 1.5
 7 8 2.0 20 1.5
 8 9 2.0 16 1.0
 9 10 1.5
 10 11 2.0 17 1.0
 11 18 1.0
 12
 13
 14
 15
 16
 17
 18
 19 21 1.0 22 2.0
 20 21 2.0 23 1.0
 21 24 1.5
 22 25 2.0 26 1.0
 23
 24 27 1.5 28 1.0
 25 27 1.0 29 1.5
 26
 27 30 1.5
 28
 29 31 2.0 32 1.0
 30 33 2.0 34 1.0
 31 33 1.0 35 1.0
 32
 33 36 1.0
 34
 35
 36
 37 38 2.0 47 1.0 48 1.0
 38 39 1.5 49 1.0
 39 40 1.5 45 1.0
 40 41 1.5 50 1.0
 41 42 2.0 43 1.0
 42 51 1.0 55 1.5
 43 44 2.0 56 1.5
 44 45 2.0 52 1.0
 45 46 1.5
 46 47 2.0 53 1.0
 47 54 1.0
 48
 49
 50
 51
 52
 53
 54
 55 57 1.0 58 2.0
 56 57 2.0 59 1.0
 57 60 1.5
 58 61 2.0 62 1.0
 59
 60 63 1.5 64 1.0
 61 63 1.0 65 1.5
 62
 63 66 1.5
 64
 65 67 2.0 68 1.0
 66 69 2.0 70 1.0
 67 69 1.0 71 1.0
 68
 69 72 1.0
 70
 71
 72

