%chk=/oasis/projects/nsf/lhu120/cmw414/pent_y_stack/2_8A/dimer/dimer.chk
%nprocshared=24
%mem=110GB
#p b3lyp/6-311g(d,p) nosymm pop=full iop(3/33=1) punch=mo

c47

0 1
 C                 -7.57733166   -9.12398798    3.39095732
 C                 -7.54933166   -8.26798798    2.33495732
 C                 -6.92833166   -8.58598798    1.09995732
 C                 -6.91333166   -7.68698798    0.01495732
 C                 -6.25833166   -8.01998798   -1.20304268
 C                 -6.20933166   -7.15598798   -2.28504268
 C                 -5.66133166   -9.36398798   -1.33704268
 C                 -5.77633166  -10.20798798   -0.27904268
 C                 -6.29733166   -9.90398798    0.96595732
 C                 -6.42333166  -10.77298798    2.05695732
 C                 -6.93533166  -10.45598798    3.26195732
 H                 -8.06733166   -8.80498798    4.45795732
 H                 -7.95833166   -7.24398798    2.42795732
 H                 -7.34733166   -6.67398798    0.15095732
 H                 -6.67633166   -6.13798798   -2.14004268
 H                 -5.31833166  -11.21898798   -0.37104268
 H                 -5.96633166  -11.77898798    1.97795732
 H                 -6.94633166  -11.13498798    4.13895732
 C                 -5.60933166   -7.47498798   -3.52304268
 C                 -5.06133166   -9.68298798   -2.57504268
 C                 -5.01133166   -8.81998798   -3.65704268
 C                 -5.49433166   -6.63198798   -4.58104268
 H                 -4.59333166  -10.70198798   -2.72004268
 C                 -4.35733166   -9.15298798   -4.87504268
 C                 -4.97233166   -6.93598798   -5.82604268
 H                 -5.95233166   -5.62098798   -4.48904268
 C                 -4.34233166   -8.25398798   -5.96004268
 H                 -3.92333166  -10.16498798   -5.01104268
 C                 -4.84733166   -6.06698798   -6.91704268
 C                 -3.72133166   -8.57098798   -7.19504268
 C                 -4.33533166   -6.38398798   -8.12204268
 H                 -5.30433166   -5.06098798   -6.83804268
 C                 -3.69333166   -7.71598798   -8.25104268
 H                 -3.31233166   -9.59598798   -7.28804268
 H                 -4.32333166   -5.70498798   -8.99904268
 H                 -3.20333166   -8.03498798   -9.31804268
 C                 -5.55955519   -5.28557798    4.80563065
 C                 -5.53155519   -4.42957798    3.74963065
 C                 -4.91055519   -4.74757798    2.51463065
 C                 -4.89555519   -3.84857798    1.42963065
 C                 -4.24055519   -4.18157798    0.21163065
 C                 -4.19155519   -3.31757798   -0.87036935
 C                 -3.64355519   -5.52557798    0.07763065
 C                 -3.75855519   -6.36957798    1.13563065
 C                 -4.27955519   -6.06557798    2.38063065
 C                 -4.40555519   -6.93457798    3.47163065
 C                 -4.91755519   -6.61757798    4.67663065
 H                 -6.04955519   -4.96657798    5.87263065
 H                 -5.94055519   -3.40557798    3.84263065
 H                 -5.32955519   -2.83557798    1.56563065
 H                 -4.65855519   -2.29957798   -0.72536935
 H                 -3.30055519   -7.38057798    1.04363065
 H                 -3.94855519   -7.94057798    3.39263065
 H                 -4.92855519   -7.29657798    5.55363065
 C                 -3.59155519   -3.63657798   -2.10836935
 C                 -3.04355519   -5.84457798   -1.16036935
 C                 -2.99355519   -4.98157798   -2.24236935
 C                 -3.47655519   -2.79357798   -3.16636935
 H                 -2.57555519   -6.86357798   -1.30536935
 C                 -2.33955519   -5.31457798   -3.46036935
 C                 -2.95455519   -3.09757798   -4.41136935
 H                 -3.93455519   -1.78257798   -3.07436935
 C                 -2.32455519   -4.41557798   -4.54536935
 H                 -1.90555519   -6.32657798   -3.59636935
 C                 -2.82955519   -2.22857798   -5.50236935
 C                 -1.70355519   -4.73257798   -5.78036935
 C                 -2.31755519   -2.54557798   -6.70736935
 H                 -3.28655519   -1.22257798   -5.42336935
 C                 -1.67555519   -3.87757798   -6.83636935
 H                 -1.29455519   -5.75757798   -5.87336935
 H                 -2.30555519   -1.86657798   -7.58436935
 H                 -1.18555519   -4.19657798   -7.90336935

 1 2 2.0 11 1.0 12 1.0
 2 3 1.5 13 1.0
 3 4 1.5 9 1.0
 4 5 1.5 14 1.0
 5 6 2.0 7 1.0
 6 15 1.0 19 1.5
 7 8 2.0 20 1.5
 8 9 2.0 16 1.0
 9 10 1.5
 10 11 2.0 17 1.0
 11 18 1.0
 12
 13
 14
 15
 16
 17
 18
 19 21 1.0 22 2.0
 20 21 2.0 23 1.0
 21 24 1.5
 22 25 2.0 26 1.0
 23
 24 27 1.5 28 1.0
 25 27 1.0 29 1.5
 26
 27 30 1.5
 28
 29 31 2.0 32 1.0
 30 33 2.0 34 1.0
 31 33 1.0 35 1.0
 32
 33 36 1.0
 34
 35
 36
 37 38 2.0 47 1.0 48 1.0
 38 39 1.5 49 1.0
 39 40 1.5 45 1.0
 40 41 1.5 50 1.0
 41 42 2.0 43 1.0
 42 51 1.0 55 1.5
 43 44 2.0 56 1.5
 44 45 2.0 52 1.0
 45 46 1.5
 46 47 2.0 53 1.0
 47 54 1.0
 48
 49
 50
 51
 52
 53
 54
 55 57 1.0 58 2.0
 56 57 2.0 59 1.0
 57 60 1.5
 58 61 2.0 62 1.0
 59
 60 63 1.5 64 1.0
 61 63 1.0 65 1.5
 62
 63 66 1.5
 64
 65 67 2.0 68 1.0
 66 69 2.0 70 1.0
 67 69 1.0 71 1.0
 68
 69 72 1.0
 70
 71
 72


