%chk=/oasis/projects/nsf/lhu120/cmw414/pent_y_stack/2_0A/dimer/dimer.chk
%nprocshared=24
%mem=110GB
#p b3lyp/6-311g(d,p) nosymm pop=full iop(3/33=1) punch=mo

c47

0 1
 C                 -7.90172163   -8.39628428    3.46319640
 C                 -7.87372163   -7.54028428    2.40719640
 C                 -7.25272163   -7.85828428    1.17219640
 C                 -7.23772163   -6.95928428    0.08719640
 C                 -6.58272163   -7.29228428   -1.13080360
 C                 -6.53372163   -6.42828428   -2.21280360
 C                 -5.98572163   -8.63628428   -1.26480360
 C                 -6.10072163   -9.48028428   -0.20680360
 C                 -6.62172163   -9.17628428    1.03819640
 C                 -6.74772163  -10.04528428    2.12919640
 C                 -7.25972163   -9.72828428    3.33419640
 H                 -8.39172163   -8.07728428    4.53019640
 H                 -8.28272163   -6.51628428    2.50019640
 H                 -7.67172163   -5.94628428    0.22319640
 H                 -7.00072163   -5.41028428   -2.06780360
 H                 -5.64272163  -10.49128428   -0.29880360
 H                 -6.29072163  -11.05128428    2.05019640
 H                 -7.27072163  -10.40728428    4.21119640
 C                 -5.93372163   -6.74728428   -3.45080360
 C                 -5.38572163   -8.95528428   -2.50280360
 C                 -5.33572163   -8.09228428   -3.58480360
 C                 -5.81872163   -5.90428428   -4.50880360
 H                 -4.91772163   -9.97428428   -2.64780360
 C                 -4.68172163   -8.42528428   -4.80280360
 C                 -5.29672163   -6.20828428   -5.75380360
 H                 -6.27672163   -4.89328428   -4.41680360
 C                 -4.66672163   -7.52628428   -5.88780360
 H                 -4.24772163   -9.43728428   -4.93880360
 C                 -5.17172163   -5.33928428   -6.84480360
 C                 -4.04572163   -7.84328428   -7.12280360
 C                 -4.65972163   -5.65628428   -8.04980360
 H                 -5.62872163   -4.33328428   -6.76580360
 C                 -4.01772163   -6.98828428   -8.17880360
 H                 -3.63672163   -8.86828428   -7.21580360
 H                 -4.64772163   -4.97728428   -8.92680360
 H                 -3.52772163   -7.30728428   -9.24580360
 C                 -5.55955519   -5.28557798    4.80563065
 C                 -5.53155519   -4.42957798    3.74963065
 C                 -4.91055519   -4.74757798    2.51463065
 C                 -4.89555519   -3.84857798    1.42963065
 C                 -4.24055519   -4.18157798    0.21163065
 C                 -4.19155519   -3.31757798   -0.87036935
 C                 -3.64355519   -5.52557798    0.07763065
 C                 -3.75855519   -6.36957798    1.13563065
 C                 -4.27955519   -6.06557798    2.38063065
 C                 -4.40555519   -6.93457798    3.47163065
 C                 -4.91755519   -6.61757798    4.67663065
 H                 -6.04955519   -4.96657798    5.87263065
 H                 -5.94055519   -3.40557798    3.84263065
 H                 -5.32955519   -2.83557798    1.56563065
 H                 -4.65855519   -2.29957798   -0.72536935
 H                 -3.30055519   -7.38057798    1.04363065
 H                 -3.94855519   -7.94057798    3.39263065
 H                 -4.92855519   -7.29657798    5.55363065
 C                 -3.59155519   -3.63657798   -2.10836935
 C                 -3.04355519   -5.84457798   -1.16036935
 C                 -2.99355519   -4.98157798   -2.24236935
 C                 -3.47655519   -2.79357798   -3.16636935
 H                 -2.57555519   -6.86357798   -1.30536935
 C                 -2.33955519   -5.31457798   -3.46036935
 C                 -2.95455519   -3.09757798   -4.41136935
 H                 -3.93455519   -1.78257798   -3.07436935
 C                 -2.32455519   -4.41557798   -4.54536935
 H                 -1.90555519   -6.32657798   -3.59636935
 C                 -2.82955519   -2.22857798   -5.50236935
 C                 -1.70355519   -4.73257798   -5.78036935
 C                 -2.31755519   -2.54557798   -6.70736935
 H                 -3.28655519   -1.22257798   -5.42336935
 C                 -1.67555519   -3.87757798   -6.83636935
 H                 -1.29455519   -5.75757798   -5.87336935
 H                 -2.30555519   -1.86657798   -7.58436935
 H                 -1.18555519   -4.19657798   -7.90336935

 1 2 2.0 11 1.0 12 1.0
 2 3 1.5 13 1.0
 3 4 1.5 9 1.0
 4 5 1.5 14 1.0
 5 6 2.0 7 1.0
 6 15 1.0 19 1.5
 7 8 2.0 20 1.5
 8 9 2.0 16 1.0
 9 10 1.5
 10 11 2.0 17 1.0
 11 18 1.0
 12
 13
 14
 15
 16
 17
 18
 19 21 1.0 22 2.0
 20 21 2.0 23 1.0
 21 24 1.5
 22 25 2.0 26 1.0
 23
 24 27 1.5 28 1.0
 25 27 1.0 29 1.5
 26
 27 30 1.5
 28
 29 31 2.0 32 1.0
 30 33 2.0 34 1.0
 31 33 1.0 35 1.0
 32
 33 36 1.0
 34
 35
 36
 37 38 2.0 47 1.0 48 1.0
 38 39 1.5 49 1.0
 39 40 1.5 45 1.0
 40 41 1.5 50 1.0
 41 42 2.0 43 1.0
 42 51 1.0 55 1.5
 43 44 2.0 56 1.5
 44 45 2.0 52 1.0
 45 46 1.5
 46 47 2.0 53 1.0
 47 54 1.0
 48
 49
 50
 51
 52
 53
 54
 55 57 1.0 58 2.0
 56 57 2.0 59 1.0
 57 60 1.5
 58 61 2.0 62 1.0
 59
 60 63 1.5 64 1.0
 61 63 1.0 65 1.5
 62
 63 66 1.5
 64
 65 67 2.0 68 1.0
 66 69 2.0 70 1.0
 67 69 1.0 71 1.0
 68
 69 72 1.0
 70
 71
 72


