%chk=/oasis/projects/nsf/lhu120/cmw414/pent_y_stack/4_5A/dimer/dimer.chk
%nprocshared=24
%mem=110GB
#p b3lyp/6-311g(d,p) nosymm pop=full iop(3/33=1) punch=mo

c47

0 1
 C                 -6.88800298  -10.67035832    3.23744926
 C                 -6.86000298   -9.81435832    2.18144926
 C                 -6.23900298  -10.13235832    0.94644926
 C                 -6.22400298   -9.23335832   -0.13855074
 C                 -5.56900298   -9.56635832   -1.35655074
 C                 -5.52000298   -8.70235832   -2.43855074
 C                 -4.97200298  -10.91035832   -1.49055074
 C                 -5.08700298  -11.75435832   -0.43255074
 C                 -5.60800298  -11.45035832    0.81244926
 C                 -5.73400298  -12.31935832    1.90344926
 C                 -6.24600298  -12.00235832    3.10844926
 H                 -7.37800298  -10.35135832    4.30444926
 H                 -7.26900298   -8.79035832    2.27444926
 H                 -6.65800298   -8.22035832   -0.00255074
 H                 -5.98700298   -7.68435832   -2.29355074
 H                 -4.62900298  -12.76535832   -0.52455074
 H                 -5.27700298  -13.32535832    1.82444926
 H                 -6.25700298  -12.68135832    3.98544926
 C                 -4.92000298   -9.02135832   -3.67655074
 C                 -4.37200298  -11.22935832   -2.72855074
 C                 -4.32200298  -10.36635832   -3.81055074
 C                 -4.80500298   -8.17835832   -4.73455074
 H                 -3.90400298  -12.24835832   -2.87355074
 C                 -3.66800298  -10.69935832   -5.02855074
 C                 -4.28300298   -8.48235832   -5.97955074
 H                 -5.26300298   -7.16735832   -4.64255074
 C                 -3.65300298   -9.80035832   -6.11355074
 H                 -3.23400298  -11.71135832   -5.16455074
 C                 -4.15800298   -7.61335832   -7.07055074
 C                 -3.03200298  -10.11735832   -7.34855074
 C                 -3.64600298   -7.93035832   -8.27555074
 H                 -4.61500298   -6.60735832   -6.99155074
 C                 -3.00400298   -9.26235832   -8.40455074
 H                 -2.62300298  -11.14235832   -7.44155074
 H                 -3.63400298   -7.25135832   -9.15255074
 H                 -2.51400298   -9.58135832   -9.47155074
 C                 -5.55955519   -5.28557798    4.80563065
 C                 -5.53155519   -4.42957798    3.74963065
 C                 -4.91055519   -4.74757798    2.51463065
 C                 -4.89555519   -3.84857798    1.42963065
 C                 -4.24055519   -4.18157798    0.21163065
 C                 -4.19155519   -3.31757798   -0.87036935
 C                 -3.64355519   -5.52557798    0.07763065
 C                 -3.75855519   -6.36957798    1.13563065
 C                 -4.27955519   -6.06557798    2.38063065
 C                 -4.40555519   -6.93457798    3.47163065
 C                 -4.91755519   -6.61757798    4.67663065
 H                 -6.04955519   -4.96657798    5.87263065
 H                 -5.94055519   -3.40557798    3.84263065
 H                 -5.32955519   -2.83557798    1.56563065
 H                 -4.65855519   -2.29957798   -0.72536935
 H                 -3.30055519   -7.38057798    1.04363065
 H                 -3.94855519   -7.94057798    3.39263065
 H                 -4.92855519   -7.29657798    5.55363065
 C                 -3.59155519   -3.63657798   -2.10836935
 C                 -3.04355519   -5.84457798   -1.16036935
 C                 -2.99355519   -4.98157798   -2.24236935
 C                 -3.47655519   -2.79357798   -3.16636935
 H                 -2.57555519   -6.86357798   -1.30536935
 C                 -2.33955519   -5.31457798   -3.46036935
 C                 -2.95455519   -3.09757798   -4.41136935
 H                 -3.93455519   -1.78257798   -3.07436935
 C                 -2.32455519   -4.41557798   -4.54536935
 H                 -1.90555519   -6.32657798   -3.59636935
 C                 -2.82955519   -2.22857798   -5.50236935
 C                 -1.70355519   -4.73257798   -5.78036935
 C                 -2.31755519   -2.54557798   -6.70736935
 H                 -3.28655519   -1.22257798   -5.42336935
 C                 -1.67555519   -3.87757798   -6.83636935
 H                 -1.29455519   -5.75757798   -5.87336935
 H                 -2.30555519   -1.86657798   -7.58436935
 H                 -1.18555519   -4.19657798   -7.90336935

 1 2 2.0 11 1.0 12 1.0
 2 3 1.5 13 1.0
 3 4 1.5 9 1.0
 4 5 1.5 14 1.0
 5 6 2.0 7 1.0
 6 15 1.0 19 1.5
 7 8 2.0 20 1.5
 8 9 2.0 16 1.0
 9 10 1.5
 10 11 2.0 17 1.0
 11 18 1.0
 12
 13
 14
 15
 16
 17
 18
 19 21 1.0 22 2.0
 20 21 2.0 23 1.0
 21 24 1.5
 22 25 2.0 26 1.0
 23
 24 27 1.5 28 1.0
 25 27 1.0 29 1.5
 26
 27 30 1.5
 28
 29 31 2.0 32 1.0
 30 33 2.0 34 1.0
 31 33 1.0 35 1.0
 32
 33 36 1.0
 34
 35
 36
 37 38 2.0 47 1.0 48 1.0
 38 39 1.5 49 1.0
 39 40 1.5 45 1.0
 40 41 1.5 50 1.0
 41 42 2.0 43 1.0
 42 51 1.0 55 1.5
 43 44 2.0 56 1.5
 44 45 2.0 52 1.0
 45 46 1.5
 46 47 2.0 53 1.0
 47 54 1.0
 48
 49
 50
 51
 52
 53
 54
 55 57 1.0 58 2.0
 56 57 2.0 59 1.0
 57 60 1.5
 58 61 2.0 62 1.0
 59
 60 63 1.5 64 1.0
 61 63 1.0 65 1.5
 62
 63 66 1.5
 64
 65 67 2.0 68 1.0
 66 69 2.0 70 1.0
 67 69 1.0 71 1.0
 68
 69 72 1.0
 70
 71
 72


