%chk=/home/cmw414/pcpl_transfer_integral/rc_stack/3_8A/dimer/dimer.chk
%nprocshared=20
%mem=110GB
#p b3lyp/6-311g(d,p) nosymm pop=full iop(3/33=1) punch=mo

c47

2 1
 O                  1.85670209   -2.39925336   -1.40473692
 O                 -1.88361791    1.55482964   -1.40478992
 C                  3.68788409   -0.88251436   -1.64209192
 C                 -1.40321991   -0.81823636   -1.64380992
 C                  5.96502109   -1.83989636   -1.50742992
 C                  0.94957409   -1.38615336   -1.54402992
 C                  3.18748209   -2.17403236   -1.40954692
 C                  5.64703909    0.55902064   -2.01160892
 C                  1.37632109   -0.02618236   -1.64379392
 C                 -3.21439791    1.32959864   -1.40960492
 C                 -2.81994991   -1.06817136   -1.80771292
 C                 -3.71478791    0.03806864   -1.64210992
 C                 -0.38170691   -1.80377536   -1.55413092
 C                  0.35480109    0.95935964   -1.55413592
 C                  5.10134109   -0.72299536   -1.71603292
 C                 -0.97648091    0.54173464   -1.54406092
 C                  5.38815409   -3.11786936   -1.24368592
 H                  6.04293009   -3.96891736   -1.08459092
 C                  4.73789509    1.63438864   -2.25419792
 H                  5.14118609    2.60501964   -2.52745192
 C                  3.37484309    1.47564864   -2.15872692
 H                  2.74295009    2.32386664   -2.36915692
 C                  4.02047909   -3.28755136   -1.20317292
 H                  3.56692509   -4.25550936   -1.02269792
 C                 -5.12824291   -0.12147236   -1.71603192
 C                  2.79305609    0.22373164   -1.80772492
 C                  7.36291309   -1.64048136   -1.57728892
 H                  8.02532709   -2.48501836   -1.41209192
 C                  7.04564509    0.71020964   -2.07927892
 H                  7.46362009    1.68591364   -2.30862392
 C                 -0.65466791   -3.25978136   -1.36670692
 C                 -5.67392591   -1.40350936   -2.01154392
 C                  0.62773809    2.41536564   -1.36667892
 C                 -3.40171991   -2.32011936   -2.15862692
 H                 -2.76981191   -3.16834236   -2.36899892
 C                 -4.04740791    2.44311464   -1.20326292
 H                 -3.59386391    3.41108264   -1.02281692
 C                 -7.07253091   -1.55471936   -2.07919592
 H                 -7.49049591   -2.53043936   -2.30849192
 C                  7.89054609   -0.38143936   -1.85757692
 H                  8.96622709   -0.24819036   -1.90953192
 C                 -5.41508091    2.27341564   -1.24377092
 H                 -6.06986591    3.12446064   -1.08470092
 C                  1.18459309    2.86173864   -0.15923792
 H                  1.42402009    2.14141964    0.61764208
 C                 -5.99193491    0.99542664   -1.50746692
 C                 -4.76477091   -2.47888236   -2.25407792
 H                 -5.16805191   -3.44953436   -2.52726892
 C                 -1.21168591   -3.70614936   -0.15934092
 H                 -1.45120791   -2.98582936    0.61750908
 C                 -0.34101991   -4.19237836   -2.36582392
 H                  0.09821609   -3.85009236   -3.29794192
 C                 -7.38982491    0.79599064   -1.57730792
 H                 -8.05224791    1.64052664   -1.41213992
 C                 -1.47160091   -5.06445936    0.03763408
 H                 -1.90706091   -5.39916736    0.97441908
 C                 -1.17378391   -5.98873936   -0.96909492
 H                 -1.38030791   -7.04406536   -0.81822592
 C                  1.44447309    4.22004964    0.03777108
 H                  1.87981309    4.55475964    0.97461108
 C                  0.31419809    3.34796364   -2.36582892
 H                 -0.12492291    3.00567564   -3.29799992
 C                 -7.91744391   -0.46306936   -1.85753792
 H                 -8.99312291   -0.59633536   -1.90947892
 C                 -0.60502991   -5.54979936   -2.16999492
 H                 -0.36749791   -6.26298936   -2.95365592
 C                  1.14678009    5.14432764   -0.96899592
 H                  1.35327909    6.19965564   -0.81809992
 C                  0.57817709    4.70538464   -2.16996692
 H                  0.34073609    5.41857464   -2.95365492
 O                 12.24913308   -1.24197860    3.00929613
 O                  8.25269863    2.17129504    1.59407855
 C                 13.97819873    0.20377337    2.21544769
 C                  8.89495923   -0.08548630    2.23734701
 C                 16.31185356   -0.47950749    2.67069428
 C                 11.27856086   -0.41497063    2.51664744
 C                 13.56172163   -0.94371155    2.90994268
 C                 15.84215406    1.54007191    1.32503712
 C                 11.61477900    0.83964579    1.92126353
 C                  6.94026959    1.86949220    1.68448139
 C                  7.50106660   -0.47438109    2.18960008
 C                  6.53148018    0.55160717    1.94633772
 C                  9.97861501   -0.89727239    2.67267651
 C                 10.52815636    1.71714150    1.65277287
 C                 15.37881188    0.42139962    2.07510566
 C                  9.22787675    1.24222918    1.82757308
 C                 15.81767107   -1.60822329    3.38995483
 H                 16.52530431   -2.29486407    3.84394289
 C                 14.86710163    2.38687648    0.71347899
 H                 15.20887991    3.21503788    0.09966125
 C                 13.51636571    2.18130963    0.87309911
 H                 12.83259778    2.84808109    0.37217940
 C                 14.46396360   -1.84439602    3.50250128
 H                 14.07339422   -2.70750879    4.02948995
 C                 13.01408839    1.10840624    1.66402926
 C                 17.69419730   -0.22442921    2.51966600
 H                 18.40891318   -0.90226993    2.97687301
 C                 17.22840650    1.75125009    1.19372054
 H                 17.58376907    2.60121129    0.61875626
 C                  9.80080645   -2.19836571    3.38340092
 C                  4.67973987   -1.05547457    2.14930678
 C                 10.69975417    3.15558594    1.29080606
 C                  7.01039232   -1.80448729    2.32753853
 H                  7.70112021   -2.62544013    2.43698157
 C                  6.03120365    2.92138813    1.47587985
 H                  6.41580597    3.91674744    1.28465778
 C                  3.29572311   -1.31625284    2.15473898
 H                  2.94794073   -2.33426981    2.30302849
 C                 18.14080519    0.87729009    1.79241042
 H                 19.20584610    1.05548787    1.68527664
 C                  4.67883643    2.65551445    1.51305747
 H                  3.96594361    3.45872441    1.35506423
 C                 11.20543407    4.05028314    2.24529801
 H                 11.47975095    3.68288830    3.22992919
 C                  4.19337252    1.33353581    1.74163849
 C                  5.66280979   -2.08002738    2.30954949
 H                  5.33006108   -3.10841972    2.41500891
 C                  9.25511111   -2.20830762    4.67543957
 H                  8.95505758   -1.27164677    5.13626705
 C                 10.19270599   -3.40837313    2.79294023
 H                 10.62333428   -3.40222254    1.79621891
 C                  2.81333772    1.02725346    1.76270945
 H                  2.09316078    1.82613516    1.61284637
 C                  9.08361135   -3.41435276    5.35910903
 H                  8.65616510   -3.41150313    6.35735879
 C                  9.45928581   -4.62051441    4.75866375
 H                  9.32150192   -5.55864802    5.28785890
 C                 11.37039677    5.40067874    1.92815768
 H                 11.76680202    6.08430074    2.67296954
 C                 10.34094048    3.63345607    0.02224784
 H                  9.94119415    2.94425413   -0.71540699
 C                  2.37599545   -0.27984994    1.96851325
 H                  1.31267231   -0.49612983    1.97899725
 C                 10.01708033   -4.61429335    3.47525546
 H                 10.31478309   -5.54696957    3.00549582
 C                 11.02807567    5.86912165    0.65541724
 H                 11.16085433    6.91781916    0.40695805
 C                 10.51007099    4.98288595   -0.29567115
 H                 10.23832558    5.34130695   -1.28404046
 C                  5.13331073    0.27978509    1.94912865

 1 6 1.0 7 1.0
 2 10 1.0 16 1.0
 3 7 1.5 15 1.5 26 1.5
 4 11 1.0 13 1.5 16 1.5
 5 15 1.5 17 1.5 27 1.5
 6 9 1.5 13 1.5
 7 23 1.5
 8 15 1.5 19 1.5 29 1.5
 9 14 1.5 26 1.0
 10 12 1.5 36 1.5
 11 12 1.5 34 1.5
 12 25 1.5
 13 31 1.0
 14 16 1.5 33 1.0
 15
 16
 17 18 1.0 23 2.0
 18
 19 20 1.0 21 2.0
 20
 21 22 1.0 26 1.5
 22
 23 24 1.0
 24
 25 32 1.5 46 1.5
 26
 27 28 1.0 40 1.5
 28
 29 30 1.0 40 1.5
 30
 31 49 1.5 51 1.5
 32 38 1.5 47 1.5
 33 44 1.5 61 1.5
 34 35 1.0 47 2.0
 35
 36 37 1.0 42 2.0
 37
 38 39 1.0 63 1.5
 39
 40 41 1.0
 41
 42 43 1.0 46 1.5
 43
 44 45 1.0 59 1.5
 45
 46 53 1.5
 47 48 1.0
 48
 49 50 1.0 55 1.5
 50
 51 52 1.0 65 1.5
 52
 53 54 1.0 63 1.5
 54
 55 56 1.0 57 1.5
 56
 57 58 1.0 65 1.5
 58
 59 60 1.0 67 1.5
 60
 61 62 1.0 69 1.5
 62
 63 64 1.0
 64
 65 66 1.0
 66
 67 68 1.0 69 1.5
 68
 69 70 1.0
 70
 71 76 1.0 77 1.0
 72 80 1.0 86 1.0
 73 77 1.5 85 1.5 95 1.5
 74 81 1.0 83 1.5 86 1.5
 75 85 1.5 87 1.5 96 1.5
 76 79 1.5 83 1.5
 77 93 1.5
 78 85 1.5 89 1.5 98 1.5
 79 84 1.5 95 1.0
 80 82 1.5 105 1.5
 81 82 1.5 103 1.5
 82 140 1.5
 83 100 1.0
 84 86 1.5 102 1.0
 85
 86
 87 88 1.0 93 2.0
 88
 89 90 1.0 91 2.0
 90
 91 92 1.0 95 1.5
 92
 93 94 1.0
 94
 95
 96 97 1.0 109 1.5
 97
 98 99 1.0 109 1.5
 99
 100 118 1.5 120 1.5
 101 107 1.5 116 1.5 140 1.5
 102 113 1.5 130 1.5
 103 104 1.0 116 2.0
 104
 105 106 1.0 111 2.0
 106
 107 108 1.0 132 1.5
 108
 109 110 1.0
 110
 111 112 1.0 115 1.5
 112
 113 114 1.0 128 1.5
 114
 115 122 1.5 140 1.5
 116 117 1.0
 117
 118 119 1.0 124 1.5
 119
 120 121 1.0 134 1.5
 121
 122 123 1.0 132 1.5
 123
 124 125 1.0 126 1.5
 125
 126 127 1.0 134 1.5
 127
 128 129 1.0 136 1.5
 129
 130 131 1.0 138 1.5
 131
 132 133 1.0
 133
 134 135 1.0
 135
 136 137 1.0 138 1.5
 137
 138 139 1.0
 139
 140

