%chk=/oasis/projects/nsf/lhu120/cmw414/pent_y_stack/3_0A/dimer/dimer.chk
%nprocshared=24
%mem=110GB
#p b3lyp/6-311g(d,p) nosymm pop=full iop(3/33=1) punch=mo

c47

0 1
 C                 -7.49623417   -9.30591390    3.37289755
 C                 -7.46823417   -8.44991390    2.31689755
 C                 -6.84723417   -8.76791390    1.08189755
 C                 -6.83223417   -7.86891390   -0.00310245
 C                 -6.17723417   -8.20191390   -1.22110245
 C                 -6.12823417   -7.33791390   -2.30310245
 C                 -5.58023417   -9.54591390   -1.35510245
 C                 -5.69523417  -10.38991390   -0.29710245
 C                 -6.21623417  -10.08591390    0.94789755
 C                 -6.34223417  -10.95491390    2.03889755
 C                 -6.85423417  -10.63791390    3.24389755
 H                 -7.98623417   -8.98691390    4.43989755
 H                 -7.87723417   -7.42591390    2.40989755
 H                 -7.26623417   -6.85591390    0.13289755
 H                 -6.59523417   -6.31991390   -2.15810245
 H                 -5.23723417  -11.40091390   -0.38910245
 H                 -5.88523417  -11.96091390    1.95989755
 H                 -6.86523417  -11.31691390    4.12089755
 C                 -5.52823417   -7.65691390   -3.54110245
 C                 -4.98023417   -9.86491390   -2.59310245
 C                 -4.93023417   -9.00191390   -3.67510245
 C                 -5.41323417   -6.81391390   -4.59910245
 H                 -4.51223417  -10.88391390   -2.73810245
 C                 -4.27623417   -9.33491390   -4.89310245
 C                 -4.89123417   -7.11791390   -5.84410245
 H                 -5.87123417   -5.80291390   -4.50710245
 C                 -4.26123417   -8.43591390   -5.97810245
 H                 -3.84223417  -10.34691390   -5.02910245
 C                 -4.76623417   -6.24891390   -6.93510245
 C                 -3.64023417   -8.75291390   -7.21310245
 C                 -4.25423417   -6.56591390   -8.14010245
 H                 -5.22323417   -5.24291390   -6.85610245
 C                 -3.61223417   -7.89791390   -8.26910245
 H                 -3.23123417   -9.77791390   -7.30610245
 H                 -4.24223417   -5.88691390   -9.01710245
 H                 -3.12223417   -8.21691390   -9.33610245
 C                 -5.55955519   -5.28557798    4.80563065
 C                 -5.53155519   -4.42957798    3.74963065
 C                 -4.91055519   -4.74757798    2.51463065
 C                 -4.89555519   -3.84857798    1.42963065
 C                 -4.24055519   -4.18157798    0.21163065
 C                 -4.19155519   -3.31757798   -0.87036935
 C                 -3.64355519   -5.52557798    0.07763065
 C                 -3.75855519   -6.36957798    1.13563065
 C                 -4.27955519   -6.06557798    2.38063065
 C                 -4.40555519   -6.93457798    3.47163065
 C                 -4.91755519   -6.61757798    4.67663065
 H                 -6.04955519   -4.96657798    5.87263065
 H                 -5.94055519   -3.40557798    3.84263065
 H                 -5.32955519   -2.83557798    1.56563065
 H                 -4.65855519   -2.29957798   -0.72536935
 H                 -3.30055519   -7.38057798    1.04363065
 H                 -3.94855519   -7.94057798    3.39263065
 H                 -4.92855519   -7.29657798    5.55363065
 C                 -3.59155519   -3.63657798   -2.10836935
 C                 -3.04355519   -5.84457798   -1.16036935
 C                 -2.99355519   -4.98157798   -2.24236935
 C                 -3.47655519   -2.79357798   -3.16636935
 H                 -2.57555519   -6.86357798   -1.30536935
 C                 -2.33955519   -5.31457798   -3.46036935
 C                 -2.95455519   -3.09757798   -4.41136935
 H                 -3.93455519   -1.78257798   -3.07436935
 C                 -2.32455519   -4.41557798   -4.54536935
 H                 -1.90555519   -6.32657798   -3.59636935
 C                 -2.82955519   -2.22857798   -5.50236935
 C                 -1.70355519   -4.73257798   -5.78036935
 C                 -2.31755519   -2.54557798   -6.70736935
 H                 -3.28655519   -1.22257798   -5.42336935
 C                 -1.67555519   -3.87757798   -6.83636935
 H                 -1.29455519   -5.75757798   -5.87336935
 H                 -2.30555519   -1.86657798   -7.58436935
 H                 -1.18555519   -4.19657798   -7.90336935

 1 2 2.0 11 1.0 12 1.0
 2 3 1.5 13 1.0
 3 4 1.5 9 1.0
 4 5 1.5 14 1.0
 5 6 2.0 7 1.0
 6 15 1.0 19 1.5
 7 8 2.0 20 1.5
 8 9 2.0 16 1.0
 9 10 1.5
 10 11 2.0 17 1.0
 11 18 1.0
 12
 13
 14
 15
 16
 17
 18
 19 21 1.0 22 2.0
 20 21 2.0 23 1.0
 21 24 1.5
 22 25 2.0 26 1.0
 23
 24 27 1.5 28 1.0
 25 27 1.0 29 1.5
 26
 27 30 1.5
 28
 29 31 2.0 32 1.0
 30 33 2.0 34 1.0
 31 33 1.0 35 1.0
 32
 33 36 1.0
 34
 35
 36
 37 38 2.0 47 1.0 48 1.0
 38 39 1.5 49 1.0
 39 40 1.5 45 1.0
 40 41 1.5 50 1.0
 41 42 2.0 43 1.0
 42 51 1.0 55 1.5
 43 44 2.0 56 1.5
 44 45 2.0 52 1.0
 45 46 1.5
 46 47 2.0 53 1.0
 47 54 1.0
 48
 49
 50
 51
 52
 53
 54
 55 57 1.0 58 2.0
 56 57 2.0 59 1.0
 57 60 1.5
 58 61 2.0 62 1.0
 59
 60 63 1.5 64 1.0
 61 63 1.0 65 1.5
 62
 63 66 1.5
 64
 65 67 2.0 68 1.0
 66 69 2.0 70 1.0
 67 69 1.0 71 1.0
 68
 69 72 1.0
 70
 71
 72


