%chk=/oasis/projects/nsf/lhu120/cmw414/rc_slip_y_90/4_5A/dimer/dimer.chk
%mem=110GB
#p b3lyp/6-311g(d,p) nosymm pop=full iop(3/33=1) punch=mo

c47

2 1
 O                  1.86343256   -2.18814168   -0.63312396
 O                 -1.87688744    1.76594132   -0.63317696
 C                  3.69461456   -0.67140268   -0.87047896
 C                 -1.39648944   -0.60712468   -0.87219696
 C                  5.97175156   -1.62878468   -0.73581696
 C                  0.95630456   -1.17504168   -0.77241696
 C                  3.19421256   -1.96292068   -0.63793396
 C                  5.65376956    0.77013232   -1.23999596
 C                  1.38305156    0.18492932   -0.87218096
 C                 -3.20766744    1.54071032   -0.63799196
 C                 -2.81321944   -0.85705968   -1.03609996
 C                 -3.70805744    0.24918032   -0.87049696
 C                 -0.37497644   -1.59266368   -0.78251796
 C                  0.36153156    1.17047132   -0.78252296
 C                  5.10807156   -0.51188368   -0.94441996
 C                 -0.96975044    0.75284632   -0.77244796
 C                  5.39488456   -2.90675768   -0.47207296
 H                  6.04966056   -3.75780568   -0.31297796
 C                  4.74462556    1.84550032   -1.48258496
 H                  5.14791656    2.81613132   -1.75583896
 C                  3.38157356    1.68676032   -1.38711396
 H                  2.74968056    2.53497832   -1.59754396
 C                  4.02720956   -3.07643968   -0.43155996
 H                  3.57365556   -4.04439768   -0.25108496
 C                 -5.12151244    0.08963932   -0.94441896
 C                  2.79978656    0.43484332   -1.03611196
 C                  7.36964356   -1.42936968   -0.80567596
 H                  8.03205756   -2.27390668   -0.64047896
 C                  7.05237556    0.92132132   -1.30766596
 H                  7.47035056    1.89702532   -1.53701096
 C                 -0.64793744   -3.04866968   -0.59509396
 C                 -5.66719544   -1.19239768   -1.23993096
 C                  0.63446856    2.62647732   -0.59506596
 C                 -3.39498944   -2.10900768   -1.38701396
 H                 -2.76308144   -2.95723068   -1.59738596
 C                 -4.04067744    2.65422632   -0.43164996
 H                 -3.58713344    3.62219432   -0.25120396
 C                 -7.06580044   -1.34360768   -1.30758296
 H                 -7.48376544   -2.31932768   -1.53687896
 C                  7.89727656   -0.17032768   -1.08596396
 H                  8.97295756   -0.03707868   -1.13791896
 C                 -5.40835044    2.48452732   -0.47215796
 H                 -6.06313544    3.33557232   -0.31308796
 C                  1.19132356    3.07285032    0.61237504
 H                  1.43075056    2.35253132    1.38925504
 C                 -5.98520444    1.20653832   -0.73585396
 C                 -4.75804044   -2.26777068   -1.48246496
 H                 -5.16132144   -3.23842268   -1.75565596
 C                 -1.20495544   -3.49503768    0.61227204
 H                 -1.44447744   -2.77471768    1.38912204
 C                 -0.33428944   -3.98126668   -1.59421096
 H                  0.10494656   -3.63898068   -2.52632896
 C                 -7.38309444    1.00710232   -0.80569496
 H                 -8.04551744    1.85163832   -0.64052696
 C                 -1.46487044   -4.85334768    0.80924704
 H                 -1.90033044   -5.18805568    1.74603204
 C                 -1.16705344   -5.77762768   -0.19748196
 H                 -1.37357744   -6.83295368   -0.04661296
 C                  1.45120356    4.43116132    0.80938404
 H                  1.88654356    4.76587132    1.74622404
 C                  0.32092856    3.55907532   -1.59421596
 H                 -0.11819244    3.21678732   -2.52638696
 C                 -7.91071344   -0.25195768   -1.08592496
 H                 -8.98639244   -0.38522368   -1.13786596
 C                 -0.59829944   -5.33868768   -1.39838196
 H                 -0.36076744   -6.05187768   -2.18204296
 C                  1.15351056    5.35543932   -0.19738296
 H                  1.36000956    6.41076732   -0.04648696
 C                  0.58490756    4.91649632   -1.39835396
 H                  0.34746656    5.62968632   -2.18204196
 O                 14.17327720   -5.27298216    3.55581209
 O                 10.17684275   -1.85970852    2.14059451
 C                 15.90234285   -3.82723019    2.76196365
 C                 10.81910335   -4.11648986    2.78386297
 C                 18.23599768   -4.51051105    3.21721024
 C                 13.20270498   -4.44597419    3.06316340
 C                 15.48586575   -4.97471511    3.45645864
 C                 17.76629818   -2.49093165    1.87155308
 C                 13.53892312   -3.19135777    2.46777949
 C                  8.86441371   -2.16151136    2.23099735
 C                  9.42521072   -4.50538465    2.73611604
 C                  8.45562430   -3.47939639    2.49285368
 C                 11.90275913   -4.92827595    3.21919247
 C                 12.45230048   -2.31386206    2.19928883
 C                 17.30295600   -3.60960394    2.62162162
 C                 11.15202087   -2.78877438    2.37408904
 C                 17.74181519   -5.63922685    3.93647079
 H                 18.44944843   -6.32586763    4.39045885
 C                 16.79124575   -1.64412708    1.25999495
 H                 17.13302403   -0.81596568    0.64617721
 C                 15.44050983   -1.84969393    1.41961507
 H                 14.75674190   -1.18292247    0.91869536
 C                 16.38810772   -5.87539958    4.04901724
 H                 15.99753834   -6.73851235    4.57600591
 C                 14.93823251   -2.92259732    2.21054522
 C                 19.61834142   -4.25543277    3.06618196
 H                 20.33305730   -4.93327349    3.52338897
 C                 19.15255062   -2.27975347    1.74023650
 H                 19.50791319   -1.42979227    1.16527222
 C                 11.72495057   -6.22936927    3.92991688
 C                  6.60388399   -5.08647813    2.69582274
 C                 12.62389829   -0.87541762    1.83732202
 C                  8.93453644   -5.83549085    2.87405449
 H                  9.62526433   -6.65644369    2.98349753
 C                  7.95534777   -1.10961543    2.02239581
 H                  8.33995009   -0.11425612    1.83117374
 C                  5.21986723   -5.34725640    2.70125494
 H                  4.87208485   -6.36527337    2.84954445
 C                 20.06494931   -3.15371347    2.33892638
 H                 21.12999022   -2.97551569    2.23179260
 C                  6.60298055   -1.37548911    2.05957343
 H                  5.89008773   -0.57227915    1.90158019
 C                 13.12957819    0.01927958    2.79181397
 H                 13.40389507   -0.34811526    3.77644515
 C                  6.11751664   -2.69746775    2.28815445
 C                  7.58695391   -6.11103094    2.85606545
 C                 11.17925523   -6.23931118    5.22195553
 H                 10.87920170   -5.30265033    5.68278301
 C                 12.11685011   -7.43937669    3.33945619
 H                 12.54747840   -7.43322610    2.34273487
 C                  4.73748184   -3.00375010    2.30922541
 H                  4.01730490   -2.20486840    2.15936233
 C                 11.00775547   -7.44535632    5.90562499
 H                 10.58030922   -7.44250669    6.90387475
 C                 11.38342993   -8.65151797    5.30517971
 H                 11.24564604   -9.58965158    5.83437486
 C                 13.29454089    1.36967518    2.47467364
 H                 13.69094614    2.05329718    3.21948550
 C                 12.26508460   -0.39754749    0.56876380
 H                 11.86533827   -1.08674943   -0.16889103
 C                  4.30013957   -4.31085350    2.51502921
 C                 11.94122445   -8.64529691    4.02177142
 H                 12.23892721   -9.57797313    3.55201178
 C                 12.95221979    1.83811809    1.20193320
 H                 13.08499845    2.88681560    0.95347401
 C                 12.43421511    0.95188239    0.25084481
 H                 12.16246970    1.31030339   -0.73752450
 C                  7.05745485   -3.75121847    2.49564461
 H                  7.25911288   -7.12425560    2.95996946
 H                  3.25165835   -4.52411454    2.52536687

 1 6 1.0 7 1.0
 2 10 1.0 16 1.0
 3 7 1.5 15 1.5 26 1.5
 4 11 1.0 13 1.5 16 1.5
 5 15 1.5 17 1.5 27 1.5
 6 9 1.5 13 1.5
 7 23 1.5
 8 15 1.5 19 1.5 29 1.5
 9 14 1.5 26 1.0
 10 12 1.5 36 1.5
 11 12 1.5 34 1.5
 12 25 1.5
 13 31 1.0
 14 16 1.5 33 1.0
 15
 16
 17 18 1.0 23 2.0
 18
 19 20 1.0 21 2.0
 20
 21 22 1.0 26 1.5
 22
 23 24 1.0
 24
 25 32 1.5 46 1.5
 26
 27 28 1.0 40 1.5
 28
 29 30 1.0 40 1.5
 30
 31 49 1.5 51 1.5
 32 38 1.5 47 1.5
 33 44 1.5 61 1.5
 34 35 1.0 47 2.0
 35
 36 37 1.0 42 2.0
 37
 38 39 1.0 63 1.5
 39
 40 41 1.0
 41
 42 43 1.0 46 1.5
 43
 44 45 1.0 59 1.5
 45
 46 53 1.5
 47 48 1.0
 48
 49 50 1.0 55 1.5
 50
 51 52 1.0 65 1.5
 52
 53 54 1.0 63 1.5
 54
 55 56 1.0 57 1.5
 56
 57 58 1.0 65 1.5
 58
 59 60 1.0 67 1.5
 60
 61 62 1.0 69 1.5
 62
 63 64 1.0
 64
 65 66 1.0
 66
 67 68 1.0 69 1.5
 68
 69 70 1.0
 70
 71 76 1.0 77 1.0
 72 80 1.0 86 1.0
 73 77 1.5 85 1.5 95 1.5
 74 81 1.0 83 1.5 86 1.5
 75 85 1.5 87 1.5 96 1.5
 76 79 1.5 83 1.5
 77 93 1.5
 78 85 1.5 89 1.5 98 1.5
 79 84 1.5 95 1.0
 80 82 1.5 105 1.5
 81 82 1.5 103 1.5
 82 140 1.5
 83 100 1.0
 84 86 1.5 102 1.0
 85
 86
 87 88 1.0 93 2.0
 88
 89 90 1.0 91 2.0
 90
 91 92 1.0 95 1.5
 92
 93 94 1.0
 94
 95
 96 97 1.0 109 1.5
 97
 98 99 1.0 109 1.5
 99
 100 118 1.5 120 1.5
 101 107 1.5 116 1.5 140 1.5
 102 113 1.5 130 1.5
 103 104 1.0 116 2.0
 104
 105 106 1.0 111 2.0
 106
 107 108 1.0 132 1.5
 108
 109 110 1.0
 110
 111 112 1.0 115 1.5
 112
 113 114 1.0 128 1.5
 114
 115 122 1.5 140 1.5
 116 117 1.0
 117
 118 119 1.0 124 1.5
 119
 120 121 1.0 134 1.5
 121
 122 123 1.0 132 1.5
 123
 124 125 1.0 126 1.5
 125
 126 127 1.0 134 1.5
 127
 128 129 1.0 136 1.5
 129
 130 131 1.0 138 1.5
 131
 132 133 1.0
 133
 134 135 1.0
 135
 136 137 1.0 138 1.5
 137
 138 139 1.0
 139
 140













































