%chk=/oasis/projects/nsf/lhu120/cmw414/pent_y_stack/n_0_6A/dimer/dimer.chk
%nprocshared=24
%mem=110GB
#p b3lyp/6-311g(d,p) nosymm pop=full iop(3/33=1) punch=mo

c47

0 1
 C                 -8.95598905   -6.03124730    3.69797342
 C                 -8.92798905   -5.17524730    2.64197342
 C                 -8.30698905   -5.49324730    1.40697342
 C                 -8.29198905   -4.59424730    0.32197342
 C                 -7.63698905   -4.92724730   -0.89602658
 C                 -7.58798905   -4.06324730   -1.97802658
 C                 -7.03998905   -6.27124730   -1.03002658
 C                 -7.15498905   -7.11524730    0.02797342
 C                 -7.67598905   -6.81124730    1.27297342
 C                 -7.80198905   -7.68024730    2.36397342
 C                 -8.31398905   -7.36324730    3.56897342
 H                 -9.44598905   -5.71224730    4.76497342
 H                 -9.33698905   -4.15124730    2.73497342
 H                 -8.72598905   -3.58124730    0.45797342
 H                 -8.05498905   -3.04524730   -1.83302658
 H                 -6.69698905   -8.12624730   -0.06402658
 H                 -7.34498905   -8.68624730    2.28497342
 H                 -8.32498905   -8.04224730    4.44597342
 C                 -6.98798905   -4.38224730   -3.21602658
 C                 -6.43998905   -6.59024730   -2.26802658
 C                 -6.38998905   -5.72724730   -3.35002658
 C                 -6.87298905   -3.53924730   -4.27402658
 H                 -5.97198905   -7.60924730   -2.41302658
 C                 -5.73598905   -6.06024730   -4.56802658
 C                 -6.35098905   -3.84324730   -5.51902658
 H                 -7.33098905   -2.52824730   -4.18202658
 C                 -5.72098905   -5.16124730   -5.65302658
 H                 -5.30198905   -7.07224730   -4.70402658
 C                 -6.22598905   -2.97424730   -6.61002658
 C                 -5.09998905   -5.47824730   -6.88802658
 C                 -5.71398905   -3.29124730   -7.81502658
 H                 -6.68298905   -1.96824730   -6.53102658
 C                 -5.07198905   -4.62324730   -7.94402658
 H                 -4.69098905   -6.50324730   -6.98102658
 H                 -5.70198905   -2.61224730   -8.69202658
 H                 -4.58198905   -4.94224730   -9.01102658
 C                 -5.55955519   -5.28557798    4.80563065
 C                 -5.53155519   -4.42957798    3.74963065
 C                 -4.91055519   -4.74757798    2.51463065
 C                 -4.89555519   -3.84857798    1.42963065
 C                 -4.24055519   -4.18157798    0.21163065
 C                 -4.19155519   -3.31757798   -0.87036935
 C                 -3.64355519   -5.52557798    0.07763065
 C                 -3.75855519   -6.36957798    1.13563065
 C                 -4.27955519   -6.06557798    2.38063065
 C                 -4.40555519   -6.93457798    3.47163065
 C                 -4.91755519   -6.61757798    4.67663065
 H                 -6.04955519   -4.96657798    5.87263065
 H                 -5.94055519   -3.40557798    3.84263065
 H                 -5.32955519   -2.83557798    1.56563065
 H                 -4.65855519   -2.29957798   -0.72536935
 H                 -3.30055519   -7.38057798    1.04363065
 H                 -3.94855519   -7.94057798    3.39263065
 H                 -4.92855519   -7.29657798    5.55363065
 C                 -3.59155519   -3.63657798   -2.10836935
 C                 -3.04355519   -5.84457798   -1.16036935
 C                 -2.99355519   -4.98157798   -2.24236935
 C                 -3.47655519   -2.79357798   -3.16636935
 H                 -2.57555519   -6.86357798   -1.30536935
 C                 -2.33955519   -5.31457798   -3.46036935
 C                 -2.95455519   -3.09757798   -4.41136935
 H                 -3.93455519   -1.78257798   -3.07436935
 C                 -2.32455519   -4.41557798   -4.54536935
 H                 -1.90555519   -6.32657798   -3.59636935
 C                 -2.82955519   -2.22857798   -5.50236935
 C                 -1.70355519   -4.73257798   -5.78036935
 C                 -2.31755519   -2.54557798   -6.70736935
 H                 -3.28655519   -1.22257798   -5.42336935
 C                 -1.67555519   -3.87757798   -6.83636935
 H                 -1.29455519   -5.75757798   -5.87336935
 H                 -2.30555519   -1.86657798   -7.58436935
 H                 -1.18555519   -4.19657798   -7.90336935

 1 2 2.0 11 1.0 12 1.0
 2 3 1.5 13 1.0
 3 4 1.5 9 1.0
 4 5 1.5 14 1.0
 5 6 2.0 7 1.0
 6 15 1.0 19 1.5
 7 8 2.0 20 1.5
 8 9 2.0 16 1.0
 9 10 1.5
 10 11 2.0 17 1.0
 11 18 1.0
 12
 13
 14
 15
 16
 17
 18
 19 21 1.0 22 2.0
 20 21 2.0 23 1.0
 21 24 1.5
 22 25 2.0 26 1.0
 23
 24 27 1.5 28 1.0
 25 27 1.0 29 1.5
 26
 27 30 1.5
 28
 29 31 2.0 32 1.0
 30 33 2.0 34 1.0
 31 33 1.0 35 1.0
 32
 33 36 1.0
 34
 35
 36
 37 38 2.0 47 1.0 48 1.0
 38 39 1.5 49 1.0
 39 40 1.5 45 1.0
 40 41 1.5 50 1.0
 41 42 2.0 43 1.0
 42 51 1.0 55 1.5
 43 44 2.0 56 1.5
 44 45 2.0 52 1.0
 45 46 1.5
 46 47 2.0 53 1.0
 47 54 1.0
 48
 49
 50
 51
 52
 53
 54
 55 57 1.0 58 2.0
 56 57 2.0 59 1.0
 57 60 1.5
 58 61 2.0 62 1.0
 59
 60 63 1.5 64 1.0
 61 63 1.0 65 1.5
 62
 63 66 1.5
 64
 65 67 2.0 68 1.0
 66 69 2.0 70 1.0
 67 69 1.0 71 1.0
 68
 69 72 1.0
 70
 71
 72


