%chk=/home/cmw414/pcpl_transfer_integral/rc_stack/3_3A/dimer/dimer.chk
%nprocshared=20
%mem=110GB
#p b3lyp/6-311g(d,p) nosymm pop=full iop(3/33=1) punch=mo

c47

2 1
 O                  1.86090863   -2.26730856   -0.92247882
 O                 -1.87941137    1.68677444   -0.92253182
 C                  3.69209063   -0.75056956   -1.15983382
 C                 -1.39901337   -0.68629156   -1.16155182
 C                  5.96922763   -1.70795156   -1.02517182
 C                  0.95378063   -1.25420856   -1.06177182
 C                  3.19168863   -2.04208756   -0.92728882
 C                  5.65124563    0.69096544   -1.52935082
 C                  1.38052763    0.10576244   -1.16153582
 C                 -3.21019137    1.46154344   -0.92734682
 C                 -2.81574337   -0.93622656   -1.32545482
 C                 -3.71058137    0.17001344   -1.15985182
 C                 -0.37750037   -1.67183056   -1.07187282
 C                  0.35900763    1.09130444   -1.07187782
 C                  5.10554763   -0.59105056   -1.23377482
 C                 -0.97227437    0.67367944   -1.06180282
 C                  5.39236063   -2.98592456   -0.76142782
 H                  6.04713663   -3.83697256   -0.60233282
 C                  4.74210163    1.76633344   -1.77193982
 H                  5.14539263    2.73696444   -2.04519382
 C                  3.37904963    1.60759344   -1.67646882
 H                  2.74715663    2.45581144   -1.88689882
 C                  4.02468563   -3.15560656   -0.72091482
 H                  3.57113163   -4.12356456   -0.54043982
 C                 -5.12403637    0.01047244   -1.23377382
 C                  2.79726263    0.35567644   -1.32546682
 C                  7.36711963   -1.50853656   -1.09503082
 H                  8.02953363   -2.35307356   -0.92983382
 C                  7.04985163    0.84215444   -1.59702082
 H                  7.46782663    1.81785844   -1.82636582
 C                 -0.65046137   -3.12783656   -0.88444882
 C                 -5.66971937   -1.27156456   -1.52928582
 C                  0.63194463    2.54731044   -0.88442082
 C                 -3.39751337   -2.18817456   -1.67636882
 H                 -2.76560537   -3.03639756   -1.88674082
 C                 -4.04320137    2.57505944   -0.72100482
 H                 -3.58965737    3.54302744   -0.54055882
 C                 -7.06832437   -1.42277456   -1.59693782
 H                 -7.48628937   -2.39849456   -1.82623382
 C                  7.89475263   -0.24949456   -1.37531882
 H                  8.97043363   -0.11624556   -1.42727382
 C                 -5.41087437    2.40536044   -0.76151282
 H                 -6.06565937    3.25640544   -0.60244282
 C                  1.18879963    2.99368344    0.32302018
 H                  1.42822663    2.27336444    1.09990018
 C                 -5.98772837    1.12737144   -1.02520882
 C                 -4.76056437   -2.34693756   -1.77181982
 H                 -5.16384537   -3.31758956   -2.04501082
 C                 -1.20747937   -3.57420456    0.32291718
 H                 -1.44700137   -2.85388456    1.09976718
 C                 -0.33681337   -4.06043356   -1.88356582
 H                  0.10242263   -3.71814756   -2.81568382
 C                 -7.38561837    0.92793544   -1.09504982
 H                 -8.04804137    1.77247144   -0.92988182
 C                 -1.46739437   -4.93251456    0.51989218
 H                 -1.90285437   -5.26722256    1.45667718
 C                 -1.16957737   -5.85679456   -0.48683682
 H                 -1.37610137   -6.91212056   -0.33596782
 C                  1.44867963    4.35199444    0.52002918
 H                  1.88401963    4.68670444    1.45686918
 C                  0.31840463    3.47990844   -1.88357082
 H                 -0.12071637    3.13762044   -2.81574182
 C                 -7.91323737   -0.33112456   -1.37527982
 H                 -8.98891637   -0.46439056   -1.42722082
 C                 -0.60082337   -5.41785456   -1.68773682
 H                 -0.36329137   -6.13104456   -2.47139782
 C                  1.15098663    5.27627244   -0.48673782
 H                  1.35748563    6.33160044   -0.33584182
 C                  0.58238363    4.83732944   -1.68770882
 H                  0.34494263    5.55051944   -2.47139682
 O                 12.24913308   -1.24197860    3.00929613
 O                  8.25269863    2.17129504    1.59407855
 C                 13.97819873    0.20377337    2.21544769
 C                  8.89495923   -0.08548630    2.23734701
 C                 16.31185356   -0.47950749    2.67069428
 C                 11.27856086   -0.41497063    2.51664744
 C                 13.56172163   -0.94371155    2.90994268
 C                 15.84215406    1.54007191    1.32503712
 C                 11.61477900    0.83964579    1.92126353
 C                  6.94026959    1.86949220    1.68448139
 C                  7.50106660   -0.47438109    2.18960008
 C                  6.53148018    0.55160717    1.94633772
 C                  9.97861501   -0.89727239    2.67267651
 C                 10.52815636    1.71714150    1.65277287
 C                 15.37881188    0.42139962    2.07510566
 C                  9.22787675    1.24222918    1.82757308
 C                 15.81767107   -1.60822329    3.38995483
 H                 16.52530431   -2.29486407    3.84394289
 C                 14.86710163    2.38687648    0.71347899
 H                 15.20887991    3.21503788    0.09966125
 C                 13.51636571    2.18130963    0.87309911
 H                 12.83259778    2.84808109    0.37217940
 C                 14.46396360   -1.84439602    3.50250128
 H                 14.07339422   -2.70750879    4.02948995
 C                 13.01408839    1.10840624    1.66402926
 C                 17.69419730   -0.22442921    2.51966600
 H                 18.40891318   -0.90226993    2.97687301
 C                 17.22840650    1.75125009    1.19372054
 H                 17.58376907    2.60121129    0.61875626
 C                  9.80080645   -2.19836571    3.38340092
 C                  4.67973987   -1.05547457    2.14930678
 C                 10.69975417    3.15558594    1.29080606
 C                  7.01039232   -1.80448729    2.32753853
 H                  7.70112021   -2.62544013    2.43698157
 C                  6.03120365    2.92138813    1.47587985
 H                  6.41580597    3.91674744    1.28465778
 C                  3.29572311   -1.31625284    2.15473898
 H                  2.94794073   -2.33426981    2.30302849
 C                 18.14080519    0.87729009    1.79241042
 H                 19.20584610    1.05548787    1.68527664
 C                  4.67883643    2.65551445    1.51305747
 H                  3.96594361    3.45872441    1.35506423
 C                 11.20543407    4.05028314    2.24529801
 H                 11.47975095    3.68288830    3.22992919
 C                  4.19337252    1.33353581    1.74163849
 C                  5.66280979   -2.08002738    2.30954949
 H                  5.33006108   -3.10841972    2.41500891
 C                  9.25511111   -2.20830762    4.67543957
 H                  8.95505758   -1.27164677    5.13626705
 C                 10.19270599   -3.40837313    2.79294023
 H                 10.62333428   -3.40222254    1.79621891
 C                  2.81333772    1.02725346    1.76270945
 H                  2.09316078    1.82613516    1.61284637
 C                  9.08361135   -3.41435276    5.35910903
 H                  8.65616510   -3.41150313    6.35735879
 C                  9.45928581   -4.62051441    4.75866375
 H                  9.32150192   -5.55864802    5.28785890
 C                 11.37039677    5.40067874    1.92815768
 H                 11.76680202    6.08430074    2.67296954
 C                 10.34094048    3.63345607    0.02224784
 H                  9.94119415    2.94425413   -0.71540699
 C                  2.37599545   -0.27984994    1.96851325
 H                  1.31267231   -0.49612983    1.97899725
 C                 10.01708033   -4.61429335    3.47525546
 H                 10.31478309   -5.54696957    3.00549582
 C                 11.02807567    5.86912165    0.65541724
 H                 11.16085433    6.91781916    0.40695805
 C                 10.51007099    4.98288595   -0.29567115
 H                 10.23832558    5.34130695   -1.28404046
 C                  5.13331073    0.27978509    1.94912865

 1 6 1.0 7 1.0
 2 10 1.0 16 1.0
 3 7 1.5 15 1.5 26 1.5
 4 11 1.0 13 1.5 16 1.5
 5 15 1.5 17 1.5 27 1.5
 6 9 1.5 13 1.5
 7 23 1.5
 8 15 1.5 19 1.5 29 1.5
 9 14 1.5 26 1.0
 10 12 1.5 36 1.5
 11 12 1.5 34 1.5
 12 25 1.5
 13 31 1.0
 14 16 1.5 33 1.0
 15
 16
 17 18 1.0 23 2.0
 18
 19 20 1.0 21 2.0
 20
 21 22 1.0 26 1.5
 22
 23 24 1.0
 24
 25 32 1.5 46 1.5
 26
 27 28 1.0 40 1.5
 28
 29 30 1.0 40 1.5
 30
 31 49 1.5 51 1.5
 32 38 1.5 47 1.5
 33 44 1.5 61 1.5
 34 35 1.0 47 2.0
 35
 36 37 1.0 42 2.0
 37
 38 39 1.0 63 1.5
 39
 40 41 1.0
 41
 42 43 1.0 46 1.5
 43
 44 45 1.0 59 1.5
 45
 46 53 1.5
 47 48 1.0
 48
 49 50 1.0 55 1.5
 50
 51 52 1.0 65 1.5
 52
 53 54 1.0 63 1.5
 54
 55 56 1.0 57 1.5
 56
 57 58 1.0 65 1.5
 58
 59 60 1.0 67 1.5
 60
 61 62 1.0 69 1.5
 62
 63 64 1.0
 64
 65 66 1.0
 66
 67 68 1.0 69 1.5
 68
 69 70 1.0
 70
 71 76 1.0 77 1.0
 72 80 1.0 86 1.0
 73 77 1.5 85 1.5 95 1.5
 74 81 1.0 83 1.5 86 1.5
 75 85 1.5 87 1.5 96 1.5
 76 79 1.5 83 1.5
 77 93 1.5
 78 85 1.5 89 1.5 98 1.5
 79 84 1.5 95 1.0
 80 82 1.5 105 1.5
 81 82 1.5 103 1.5
 82 140 1.5
 83 100 1.0
 84 86 1.5 102 1.0
 85
 86
 87 88 1.0 93 2.0
 88
 89 90 1.0 91 2.0
 90
 91 92 1.0 95 1.5
 92
 93 94 1.0
 94
 95
 96 97 1.0 109 1.5
 97
 98 99 1.0 109 1.5
 99
 100 118 1.5 120 1.5
 101 107 1.5 116 1.5 140 1.5
 102 113 1.5 130 1.5
 103 104 1.0 116 2.0
 104
 105 106 1.0 111 2.0
 106
 107 108 1.0 132 1.5
 108
 109 110 1.0
 110
 111 112 1.0 115 1.5
 112
 113 114 1.0 128 1.5
 114
 115 122 1.5 140 1.5
 116 117 1.0
 117
 118 119 1.0 124 1.5
 119
 120 121 1.0 134 1.5
 121
 122 123 1.0 132 1.5
 123
 124 125 1.0 126 1.5
 125
 126 127 1.0 134 1.5
 127
 128 129 1.0 136 1.5
 129
 130 131 1.0 138 1.5
 131
 132 133 1.0
 133
 134 135 1.0
 135
 136 137 1.0 138 1.5
 137
 138 139 1.0
 139
 140

