%chk=/oasis/projects/nsf/lhu120/cmw414/rc_slip_x_new/6_0A/dimer/dimer.chk
%mem=110GB
#p b3lyp/6-311g(d,p) nosymm pop=full iop(3/33=1) punch=mo

c47

2 1
 O                  1.86343256   -2.18814168   -0.63312396
 O                 -1.87688744    1.76594132   -0.63317696
 C                  3.69461456   -0.67140268   -0.87047896
 C                 -1.39648944   -0.60712468   -0.87219696
 C                  5.97175156   -1.62878468   -0.73581696
 C                  0.95630456   -1.17504168   -0.77241696
 C                  3.19421256   -1.96292068   -0.63793396
 C                  5.65376956    0.77013232   -1.23999596
 C                  1.38305156    0.18492932   -0.87218096
 C                 -3.20766744    1.54071032   -0.63799196
 C                 -2.81321944   -0.85705968   -1.03609996
 C                 -3.70805744    0.24918032   -0.87049696
 C                 -0.37497644   -1.59266368   -0.78251796
 C                  0.36153156    1.17047132   -0.78252296
 C                  5.10807156   -0.51188368   -0.94441996
 C                 -0.96975044    0.75284632   -0.77244796
 C                  5.39488456   -2.90675768   -0.47207296
 H                  6.04966056   -3.75780568   -0.31297796
 C                  4.74462556    1.84550032   -1.48258496
 H                  5.14791656    2.81613132   -1.75583896
 C                  3.38157356    1.68676032   -1.38711396
 H                  2.74968056    2.53497832   -1.59754396
 C                  4.02720956   -3.07643968   -0.43155996
 H                  3.57365556   -4.04439768   -0.25108496
 C                 -5.12151244    0.08963932   -0.94441896
 C                  2.79978656    0.43484332   -1.03611196
 C                  7.36964356   -1.42936968   -0.80567596
 H                  8.03205756   -2.27390668   -0.64047896
 C                  7.05237556    0.92132132   -1.30766596
 H                  7.47035056    1.89702532   -1.53701096
 C                 -0.64793744   -3.04866968   -0.59509396
 C                 -5.66719544   -1.19239768   -1.23993096
 C                  0.63446856    2.62647732   -0.59506596
 C                 -3.39498944   -2.10900768   -1.38701396
 H                 -2.76308144   -2.95723068   -1.59738596
 C                 -4.04067744    2.65422632   -0.43164996
 H                 -3.58713344    3.62219432   -0.25120396
 C                 -7.06580044   -1.34360768   -1.30758296
 H                 -7.48376544   -2.31932768   -1.53687896
 C                  7.89727656   -0.17032768   -1.08596396
 H                  8.97295756   -0.03707868   -1.13791896
 C                 -5.40835044    2.48452732   -0.47215796
 H                 -6.06313544    3.33557232   -0.31308796
 C                  1.19132356    3.07285032    0.61237504
 H                  1.43075056    2.35253132    1.38925504
 C                 -5.98520444    1.20653832   -0.73585396
 C                 -4.75804044   -2.26777068   -1.48246496
 H                 -5.16132144   -3.23842268   -1.75565596
 C                 -1.20495544   -3.49503768    0.61227204
 H                 -1.44447744   -2.77471768    1.38912204
 C                 -0.33428944   -3.98126668   -1.59421096
 H                  0.10494656   -3.63898068   -2.52632896
 C                 -7.38309444    1.00710232   -0.80569496
 H                 -8.04551744    1.85163832   -0.64052696
 C                 -1.46487044   -4.85334768    0.80924704
 H                 -1.90033044   -5.18805568    1.74603204
 C                 -1.16705344   -5.77762768   -0.19748196
 H                 -1.37357744   -6.83295368   -0.04661296
 C                  1.45120356    4.43116132    0.80938404
 H                  1.88654356    4.76587132    1.74622404
 C                  0.32092856    3.55907532   -1.59421596
 H                 -0.11819244    3.21678732   -2.52638696
 C                 -7.91071344   -0.25195768   -1.08592496
 H                 -8.98639244   -0.38522368   -1.13786596
 C                 -0.59829944   -5.33868768   -1.39838196
 H                 -0.36076744   -6.05187768   -2.18204296
 C                  1.15351056    5.35543932   -0.19738296
 H                  1.36000956    6.41076732   -0.04648696
 C                  0.58490756    4.91649632   -1.39835396
 H                  0.34746656    5.62968632   -2.18204196
 O                 18.12878451   -0.04731621    2.95948800
 O                 14.13235006    3.36595743    1.54427042
 C                 19.85785016    1.39843576    2.16563956
 C                 14.77461066    1.10917609    2.18753888
 C                 22.19150499    0.71515490    2.62088615
 C                 17.15821229    0.77969176    2.46683931
 C                 19.44137306    0.25095084    2.86013455
 C                 21.72180549    2.73473430    1.27522899
 C                 17.49443043    2.03430818    1.87145540
 C                 12.81992102    3.06415459    1.63467326
 C                 13.38071803    0.72028130    2.13979195
 C                 12.41113161    1.74626956    1.89652959
 C                 15.85826644    0.29739000    2.62286838
 C                 16.40780779    2.91180389    1.60296474
 C                 21.25846331    1.61606201    2.02529753
 C                 15.10752818    2.43689157    1.77776495
 C                 21.69732250   -0.41356090    3.34014670
 H                 22.40495574   -1.10020168    3.79413476
 C                 20.74675306    3.58153887    0.66367086
 H                 21.08853134    4.40970027    0.04985312
 C                 19.39601714    3.37597202    0.82329098
 H                 18.71224921    4.04274348    0.32237127
 C                 20.34361503   -0.64973363    3.45269315
 H                 19.95304565   -1.51284640    3.97968182
 C                 18.89373982    2.30306863    1.61422113
 C                 23.57384873    0.97023318    2.46985787
 H                 24.28856461    0.29239246    2.92706488
 C                 23.10805793    2.94591248    1.14391241
 H                 23.46342050    3.79587368    0.56894813
 C                 15.68045788   -1.00370332    3.33359279
 C                 10.55939130    0.13918782    2.09949865
 C                 16.57940560    4.35024833    1.24099793
 C                 12.89004375   -0.60982490    2.27773040
 H                 13.58077164   -1.43077774    2.38717344
 C                 11.91085508    4.11605052    1.42607172
 H                 12.29545740    5.11140983    1.23484965
 C                  9.17537454   -0.12159045    2.10493085
 H                  8.82759216   -1.13960742    2.25322036
 C                 24.02045662    2.07195248    1.74260229
 H                 25.08549753    2.25015026    1.63546851
 C                 10.55848786    3.85017684    1.46324934
 H                  9.84559504    4.65338680    1.30525610
 C                 17.08508550    5.24494553    2.19548988
 H                 17.35940238    4.87755069    3.18012106
 C                 10.07302395    2.52819820    1.69183036
 C                 11.54246122   -0.88536499    2.25974136
 C                 15.13476254   -1.01364523    4.62563144
 H                 14.83470901   -0.07698438    5.08645892
 C                 16.07235742   -2.21371074    2.74313210
 H                 16.50298571   -2.20756015    1.74641078
 C                  8.69298915    2.22191585    1.71290132
 H                  7.97281221    3.02079755    1.56303824
 C                 14.96326278   -2.21969037    5.30930090
 H                 14.53581653   -2.21684074    6.30755066
 C                 15.33893724   -3.42585202    4.70885562
 H                 15.20115335   -4.36398563    5.23805077
 C                 17.25004820    6.59534113    1.87834955
 H                 17.64645345    7.27896313    2.62316141
 C                 16.22059191    4.82811846   -0.02756029
 H                 15.82084558    4.13891652   -0.76521512
 C                  8.25564688    0.91481245    1.91870512
 C                 15.89673176   -3.41963096    3.42544733
 H                 16.19443452   -4.35230718    2.95568769
 C                 16.90772710    7.06378404    0.60560911
 H                 17.04050576    8.11248155    0.35714992
 C                 16.38972242    6.17754834   -0.34547928
 H                 16.11797701    6.53596934   -1.33384859
 C                 11.01296216    1.47444748    1.89932052
 H                 11.21462019   -1.89858965    2.36364537
 H                  7.20716566    0.70155141    1.92904278

 1 6 1.0 7 1.0
 2 10 1.0 16 1.0
 3 7 1.5 15 1.5 26 1.5
 4 11 1.0 13 1.5 16 1.5
 5 15 1.5 17 1.5 27 1.5
 6 9 1.5 13 1.5
 7 23 1.5
 8 15 1.5 19 1.5 29 1.5
 9 14 1.5 26 1.0
 10 12 1.5 36 1.5
 11 12 1.5 34 1.5
 12 25 1.5
 13 31 1.0
 14 16 1.5 33 1.0
 15
 16
 17 18 1.0 23 2.0
 18
 19 20 1.0 21 2.0
 20
 21 22 1.0 26 1.5
 22
 23 24 1.0
 24
 25 32 1.5 46 1.5
 26
 27 28 1.0 40 1.5
 28
 29 30 1.0 40 1.5
 30
 31 49 1.5 51 1.5
 32 38 1.5 47 1.5
 33 44 1.5 61 1.5
 34 35 1.0 47 2.0
 35
 36 37 1.0 42 2.0
 37
 38 39 1.0 63 1.5
 39
 40 41 1.0
 41
 42 43 1.0 46 1.5
 43
 44 45 1.0 59 1.5
 45
 46 53 1.5
 47 48 1.0
 48
 49 50 1.0 55 1.5
 50
 51 52 1.0 65 1.5
 52
 53 54 1.0 63 1.5
 54
 55 56 1.0 57 1.5
 56
 57 58 1.0 65 1.5
 58
 59 60 1.0 67 1.5
 60
 61 62 1.0 69 1.5
 62
 63 64 1.0
 64
 65 66 1.0
 66
 67 68 1.0 69 1.5
 68
 69 70 1.0
 70
 71 76 1.0 77 1.0
 72 80 1.0 86 1.0
 73 77 1.5 85 1.5 95 1.5
 74 81 1.0 83 1.5 86 1.5
 75 85 1.5 87 1.5 96 1.5
 76 79 1.5 83 1.5
 77 93 1.5
 78 85 1.5 89 1.5 98 1.5
 79 84 1.5 95 1.0
 80 82 1.5 105 1.5
 81 82 1.5 103 1.5
 82 140 1.5
 83 100 1.0
 84 86 1.5 102 1.0
 85
 86
 87 88 1.0 93 2.0
 88
 89 90 1.0 91 2.0
 90
 91 92 1.0 95 1.5
 92
 93 94 1.0
 94
 95
 96 97 1.0 109 1.5
 97
 98 99 1.0 109 1.5
 99
 100 118 1.5 120 1.5
 101 107 1.5 116 1.5 140 1.5
 102 113 1.5 130 1.5
 103 104 1.0 116 2.0
 104
 105 106 1.0 111 2.0
 106
 107 108 1.0 132 1.5
 108
 109 110 1.0
 110
 111 112 1.0 115 1.5
 112
 113 114 1.0 128 1.5
 114
 115 122 1.5 140 1.5
 116 117 1.0
 117
 118 119 1.0 124 1.5
 119
 120 121 1.0 134 1.5
 121
 122 123 1.0 132 1.5
 123
 124 125 1.0 126 1.5
 125
 126 127 1.0 134 1.5
 127
 128 129 1.0 136 1.5
 129
 130 131 1.0 138 1.5
 131
 132 133 1.0
 133
 134 135 1.0
 135
 136 137 1.0 138 1.5
 137
 138 139 1.0
 139
 140















































