%chk=/oasis/projects/nsf/lhu120/cmw414/pent_stack/3_1A/dimer/dimer.chk
%nprocshared=24
%mem=110GB
#p b3lyp/6-311g(d,p) nosymm pop=full iop(3/33=1) punch=mo

c47

0 1
 C                 -8.71269653   -6.57702505    3.64379411
 C                 -8.68469653   -5.72102505    2.58779411
 C                 -8.06369653   -6.03902505    1.35279411
 C                 -8.04869653   -5.14002505    0.26779411
 C                 -7.39369653   -5.47302505   -0.95020589
 C                 -7.34469653   -4.60902505   -2.03220589
 C                 -6.79669653   -6.81702505   -1.08420589
 C                 -6.91169653   -7.66102505   -0.02620589
 C                 -7.43269653   -7.35702505    1.21879411
 C                 -7.55869653   -8.22602505    2.30979411
 C                 -8.07069653   -7.90902505    3.51479411
 H                 -9.20269653   -6.25802505    4.71079411
 H                 -9.09369653   -4.69702505    2.68079411
 H                 -8.48269653   -4.12702505    0.40379411
 H                 -7.81169653   -3.59102505   -1.88720589
 H                 -6.45369653   -8.67202505   -0.11820589
 H                 -7.10169653   -9.23202505    2.23079411
 H                 -8.08169653   -8.58802505    4.39179411
 C                 -6.74469653   -4.92802505   -3.27020589
 C                 -6.19669653   -7.13602505   -2.32220589
 C                 -6.14669653   -6.27302505   -3.40420589
 C                 -6.62969653   -4.08502505   -4.32820589
 H                 -5.72869653   -8.15502505   -2.46720589
 C                 -5.49269653   -6.60602505   -4.62220589
 C                 -6.10769653   -4.38902505   -5.57320589
 H                 -7.08769653   -3.07402505   -4.23620589
 C                 -5.47769653   -5.70702505   -5.70720589
 H                 -5.05869653   -7.61802505   -4.75820589
 C                 -5.98269653   -3.52002505   -6.66420589
 C                 -4.85669653   -6.02402505   -6.94220589
 C                 -5.47069653   -3.83702505   -7.86920589
 H                 -6.43969653   -2.51402505   -6.58520589
 C                 -4.82869653   -5.16902505   -7.99820589
 H                 -4.44769653   -7.04902505   -7.03520589
 H                 -5.45869653   -3.15802505   -8.74620589
 H                 -4.33869653   -5.48802505   -9.06520589
 C                 -5.99749448   -5.46494686    4.64426336
 C                 -5.96949448   -4.60894686    3.58826336
 C                 -5.34849448   -4.92694686    2.35326336
 C                 -5.33349448   -4.02794686    1.26826336
 C                 -4.67849448   -4.36094686    0.05026336
 C                 -4.62949448   -3.49694686   -1.03173664
 C                 -4.08149448   -5.70494686   -0.08373664
 C                 -4.19649448   -6.54894686    0.97426336
 C                 -4.71749448   -6.24494686    2.21926336
 C                 -4.84349448   -7.11394686    3.31026336
 C                 -5.35549448   -6.79694686    4.51526336
 H                 -6.48749448   -5.14594686    5.71126336
 H                 -6.37849448   -3.58494686    3.68126336
 H                 -5.76749448   -3.01494686    1.40426336
 H                 -5.09649448   -2.47894686   -0.88673664
 H                 -3.73849448   -7.55994686    0.88226336
 H                 -4.38649448   -8.11994686    3.23126336
 H                 -5.36649448   -7.47594686    5.39226336
 C                 -4.02949448   -3.81594686   -2.26973664
 C                 -3.48149448   -6.02394686   -1.32173664
 C                 -3.43149448   -5.16094686   -2.40373664
 C                 -3.91449448   -2.97294686   -3.32773664
 H                 -3.01349448   -7.04294686   -1.46673664
 C                 -2.77749448   -5.49394686   -3.62173664
 C                 -3.39249448   -3.27694686   -4.57273664
 H                 -4.37249448   -1.96194686   -3.23573664
 C                 -2.76249448   -4.59494686   -4.70673664
 H                 -2.34349448   -6.50594686   -3.75773664
 C                 -3.26749448   -2.40794686   -5.66373664
 C                 -2.14149448   -4.91194686   -5.94173664
 C                 -2.75549448   -2.72494686   -6.86873664
 H                 -3.72449448   -1.40194686   -5.58473664
 C                 -2.11349448   -4.05694686   -6.99773664
 H                 -1.73249448   -5.93694686   -6.03473664
 H                 -2.74349448   -2.04594686   -7.74573664
 H                 -1.62349448   -4.37594686   -8.06473664

 1 2 2.0 11 1.0 12 1.0
 2 3 1.5 13 1.0
 3 4 1.5 9 1.0
 4 5 1.5 14 1.0
 5 6 2.0 7 1.0
 6 15 1.0 19 1.5
 7 8 2.0 20 1.5
 8 9 2.0 16 1.0
 9 10 1.5
 10 11 2.0 17 1.0
 11 18 1.0
 12
 13
 14
 15
 16
 17
 18
 19 21 1.0 22 2.0
 20 21 2.0 23 1.0
 21 24 1.5
 22 25 2.0 26 1.0
 23
 24 27 1.5 28 1.0
 25 27 1.0 29 1.5
 26
 27 30 1.5
 28
 29 31 2.0 32 1.0
 30 33 2.0 34 1.0
 31 33 1.0 35 1.0
 32
 33 36 1.0
 34
 35
 36
 37 38 2.0 47 1.0 48 1.0
 38 39 1.5 49 1.0
 39 40 1.5 45 1.0
 40 41 1.5 50 1.0
 41 42 2.0 43 1.0
 42 51 1.0 55 1.5
 43 44 2.0 56 1.5
 44 45 2.0 52 1.0
 45 46 1.5
 46 47 2.0 53 1.0
 47 54 1.0
 48
 49
 50
 51
 52
 53
 54
 55 57 1.0 58 2.0
 56 57 2.0 59 1.0
 57 60 1.5
 58 61 2.0 62 1.0
 59
 60 63 1.5 64 1.0
 61 63 1.0 65 1.5
 62
 63 66 1.5
 64
 65 67 2.0 68 1.0
 66 69 2.0 70 1.0
 67 69 1.0 71 1.0
 68
 69 72 1.0
 70
 71
 72


