%chk=/oasis/projects/nsf/lhu120/cmw414/pent_stack/2_4A/dimer/dimer.chk
%nprocshared=24
%mem=110GB
#p b3lyp/6-311g(d,p) nosymm pop=full iop(3/33=1) punch=mo

c47

0 1
 C                  -8.71269653   -6.57702505    3.64379411
 C                  -8.68469653   -5.72102505    2.58779411
 C                  -8.06369653   -6.03902505    1.35279411
 C                  -8.04869653   -5.14002505    0.26779411
 C                  -7.39369653   -5.47302505   -0.95020589
 C                  -7.34469653   -4.60902505   -2.03220589
 C                  -6.79669653   -6.81702505   -1.08420589
 C                  -6.91169653   -7.66102505   -0.02620589
 C                  -7.43269653   -7.35702505    1.21879411
 C                  -7.55869653   -8.22602505    2.30979411
 C                  -8.07069653   -7.90902505    3.51479411
 H                  -9.20269653   -6.25802505    4.71079411
 H                  -9.09369653   -4.69702505    2.68079411
 H                  -8.48269653   -4.12702505    0.40379411
 H                  -7.81169653   -3.59102505   -1.88720589
 H                  -6.45369653   -8.67202505   -0.11820589
 H                  -7.10169653   -9.23202505    2.23079411
 H                  -8.08169653   -8.58802505    4.39179411
 C)                 -6.74469653   -4.92802505   -3.27020589
 C                  -6.19669653   -7.13602505   -2.32220589
 C                  -6.14669653   -6.27302505   -3.40420589
 C)                 -6.62969653   -4.08502505   -4.32820589
 H                  -5.72869653   -8.15502505   -2.46720589
 C                  -5.49269653   -6.60602505   -4.62220589
 C)                 -6.10769653   -4.38902505   -5.57320589
 H                  -7.08769653   -3.07402505   -4.23620589
 C                  -5.47769653   -5.70702505   -5.70720589
 H                  -5.05869653   -7.61802505   -4.75820589
 C)                 -5.98269653   -3.52002505   -6.66420589
 C                  -4.85669653   -6.02402505   -6.94220589
 C)                 -5.47069653   -3.83702505   -7.86920589
 H                  -6.43969653   -2.51402505   -6.58520589
 C                  -4.82869653   -5.16902505   -7.99820589
 H                  -4.44769653   -7.04902505   -7.03520589
 H)                 -5.45869653   -3.15802505   -8.74620589
 H                  -4.33869653   -5.48802505   -9.06520589
 C                  -6.61060530   -5.71606157    4.41835071
 C                  -6.58260530   -4.86006157    3.36235071
 C                  -5.96160530   -5.17806157    2.12735071
 C                  -5.94660530   -4.27906157    1.04235071
 C                  -5.29160530   -4.61206157   -0.17564929
 C                  -5.24260530   -3.74806157   -1.25764929
 C                  -4.69460530   -5.95606157   -0.30964929
 C                  -4.80960530   -6.80006157    0.74835071
 C                  -5.33060530   -6.49606157    1.99335071
 C                  -5.45660530   -7.36506157    3.08435071
 C                  -5.96860530   -7.04806157    4.28935071
 H                  -7.10060530   -5.39706157    5.48535071
 H                  -6.99160530   -3.83606157    3.45535071
 H                  -6.38060530   -3.26606157    1.17835071
 H                  -5.70960530   -2.73006157   -1.11264929
 H                  -4.35160530   -7.81106157    0.65635071
 H                  -4.99960530   -8.37106157    3.00535071
 H                  -5.97960530   -7.72706157    5.16635071
 C                  -4.64260530   -4.06706157   -2.49564929
 C                  -4.09460530   -6.27506157   -1.54764929
 C                  -4.04460530   -5.41206157   -2.62964929
 C                  -4.52760530   -3.22406157   -3.55364929
 H                  -3.62660530   -7.29406157   -1.69264929
 C                  -3.39060530   -5.74506157   -3.84764929
 C                  -4.00560530   -3.52806157   -4.79864929
 H                  -4.98560530   -2.21306157   -3.46164929
 C                  -3.37560530   -4.84606157   -4.93264929
 H                  -2.95660530   -6.75706157   -3.98364929
 C                  -3.88060530   -2.65906157   -5.88964929
 C                  -2.75460530   -5.16306157   -6.16764929
 C                  -3.36860530   -2.97606157   -7.09464929
 H                  -4.33760530   -1.65306157   -5.81064929
 C                  -2.72660530   -4.30806157   -7.22364929
 H                  -2.34560530   -6.18806157   -6.26064929
 H                  -3.35660530   -2.29706157   -7.97164929
 H                  -2.23660530   -4.62706157   -8.29064929

 1 2 2.0 11 1.0 12 1.0
 2 3 1.5 13 1.0
 3 4 1.5 9 1.0
 4 5 1.5 14 1.0
 5 6 2.0 7 1.0
 6 15 1.0 19 1.5
 7 8 2.0 20 1.5
 8 9 2.0 16 1.0
 9 10 1.5
 10 11 2.0 17 1.0
 11 18 1.0
 12
 13
 14
 15
 16
 17
 18
 19 21 1.0 22 2.0
 20 21 2.0 23 1.0
 21 24 1.5
 22 25 2.0 26 1.0
 23
 24 27 1.5 28 1.0
 25 27 1.0 29 1.5
 26
 27 30 1.5
 28
 29 31 2.0 32 1.0
 30 33 2.0 34 1.0
 31 33 1.0 35 1.0
 32
 33 36 1.0
 34
 35
 36
 37 38 2.0 47 1.0 48 1.0
 38 39 1.5 49 1.0
 39 40 1.5 45 1.0
 40 41 1.5 50 1.0
 41 42 2.0 43 1.0
 42 51 1.0 55 1.5
 43 44 2.0 56 1.5
 44 45 2.0 52 1.0
 45 46 1.5
 46 47 2.0 53 1.0
 47 54 1.0
 48
 49
 50
 51
 52
 53
 54
 55 57 1.0 58 2.0
 56 57 2.0 59 1.0
 57 60 1.5
 58 61 2.0 62 1.0
 59
 60 63 1.5 64 1.0
 61 63 1.0 65 1.5
 62
 63 66 1.5
 64
 65 67 2.0 68 1.0
 66 69 2.0 70 1.0
 67 69 1.0 71 1.0
 68
 69 72 1.0
 70
 71
 72


