%chk=/home/cmw414/pcpl_transfer_integral/rc_stack/3_7A/dimer/dimer.chk
%nprocshared=20
%mem=110GB
#p b3lyp/6-311g(d,p) nosymm pop=full iop(3/33=1) punch=mo

c47

2 1
 O                  1.85754340   -2.37286440   -1.30828530
 O                 -1.88277660    1.58121860   -1.30833830
 C                  3.68872540   -0.85612540   -1.54564030
 C                 -1.40237860   -0.79184740   -1.54735830
 C                  5.96586240   -1.81350740   -1.41097830
 C                  0.95041540   -1.35976440   -1.44757830
 C                  3.18832340   -2.14764340   -1.31309530
 C                  5.64788040    0.58540960   -1.91515730
 C                  1.37716240    0.00020660   -1.54734230
 C                 -3.21355660    1.35598760   -1.31315330
 C                 -2.81910860   -1.04178240   -1.71126130
 C                 -3.71394660    0.06445760   -1.54565830
 C                 -0.38086560   -1.77738640   -1.45767930
 C                  0.35564240    0.98574860   -1.45768430
 C                  5.10218240   -0.69660640   -1.61958130
 C                 -0.97563960    0.56812360   -1.44760930
 C                  5.38899540   -3.09148040   -1.14723430
 H                  6.04377140   -3.94252840   -0.98813930
 C                  4.73873640    1.66077760   -2.15774630
 H                  5.14202740    2.63140860   -2.43100030
 C                  3.37568440    1.50203760   -2.06227530
 H                  2.74379140    2.35025560   -2.27270530
 C                  4.02132040   -3.26116240   -1.10672130
 H                  3.56776640   -4.22912040   -0.92624630
 C                 -5.12740160   -0.09508340   -1.61958030
 C                  2.79389740    0.25012060   -1.71127330
 C                  7.36375440   -1.61409240   -1.48083730
 H                  8.02616840   -2.45862940   -1.31564030
 C                  7.04648640    0.73659860   -1.98282730
 H                  7.46446140    1.71230260   -2.21217230
 C                 -0.65382660   -3.23339240   -1.27025530
 C                 -5.67308460   -1.37712040   -1.91509230
 C                  0.62857940    2.44175460   -1.27022730
 C                 -3.40087860   -2.29373040   -2.06217530
 H                 -2.76897060   -3.14195340   -2.27254730
 C                 -4.04656660    2.46950360   -1.10681130
 H                 -3.59302260    3.43747160   -0.92636530
 C                 -7.07168960   -1.52833040   -1.98274430
 H                 -7.48965460   -2.50405040   -2.21204030
 C                  7.89138740   -0.35505040   -1.76112530
 H                  8.96706840   -0.22180140   -1.81308030
 C                 -5.41423960    2.29980460   -1.14731930
 H                 -6.06902460    3.15084960   -0.98824930
 C                  1.18543440    2.88812760   -0.06278630
 H                  1.42486140    2.16780860    0.71409370
 C                 -5.99109360    1.02181560   -1.41101530
 C                 -4.76392960   -2.45249340   -2.15762630
 H                 -5.16721060   -3.42314540   -2.43081730
 C                 -1.21084460   -3.67976040   -0.06288930
 H                 -1.45036660   -2.95944040    0.71396070
 C                 -0.34017860   -4.16598940   -2.26937230
 H                  0.09905740   -3.82370340   -3.20149030
 C                 -7.38898360    0.82237960   -1.48085630
 H                 -8.05140660    1.66691560   -1.31568830
 C                 -1.47075960   -5.03807040    0.13408570
 H                 -1.90621960   -5.37277840    1.07087070
 C                 -1.17294260   -5.96235040   -0.87264330
 H                 -1.37946660   -7.01767640   -0.72177430
 C                  1.44531440    4.24643860    0.13422270
 H                  1.88065440    4.58114860    1.07106270
 C                  0.31503940    3.37435260   -2.26937730
 H                 -0.12408160    3.03206460   -3.20154830
 C                 -7.91660260   -0.43668040   -1.76108630
 H                 -8.99228160   -0.56994640   -1.81302730
 C                 -0.60418860   -5.52341040   -2.07354330
 H                 -0.36665660   -6.23660040   -2.85720430
 C                  1.14762140    5.17071660   -0.87254430
 H                  1.35412040    6.22604460   -0.72164830
 C                  0.57901840    4.73177360   -2.07351530
 H                  0.34157740    5.44496360   -2.85720330
 O                 12.24913308   -1.24197860    3.00929613
 O                  8.25269863    2.17129504    1.59407855
 C                 13.97819873    0.20377337    2.21544769
 C                  8.89495923   -0.08548630    2.23734701
 C                 16.31185356   -0.47950749    2.67069428
 C                 11.27856086   -0.41497063    2.51664744
 C                 13.56172163   -0.94371155    2.90994268
 C                 15.84215406    1.54007191    1.32503712
 C                 11.61477900    0.83964579    1.92126353
 C                  6.94026959    1.86949220    1.68448139
 C                  7.50106660   -0.47438109    2.18960008
 C                  6.53148018    0.55160717    1.94633772
 C                  9.97861501   -0.89727239    2.67267651
 C                 10.52815636    1.71714150    1.65277287
 C                 15.37881188    0.42139962    2.07510566
 C                  9.22787675    1.24222918    1.82757308
 C                 15.81767107   -1.60822329    3.38995483
 H                 16.52530431   -2.29486407    3.84394289
 C                 14.86710163    2.38687648    0.71347899
 H                 15.20887991    3.21503788    0.09966125
 C                 13.51636571    2.18130963    0.87309911
 H                 12.83259778    2.84808109    0.37217940
 C                 14.46396360   -1.84439602    3.50250128
 H                 14.07339422   -2.70750879    4.02948995
 C                 13.01408839    1.10840624    1.66402926
 C                 17.69419730   -0.22442921    2.51966600
 H                 18.40891318   -0.90226993    2.97687301
 C                 17.22840650    1.75125009    1.19372054
 H                 17.58376907    2.60121129    0.61875626
 C                  9.80080645   -2.19836571    3.38340092
 C                  4.67973987   -1.05547457    2.14930678
 C                 10.69975417    3.15558594    1.29080606
 C                  7.01039232   -1.80448729    2.32753853
 H                  7.70112021   -2.62544013    2.43698157
 C                  6.03120365    2.92138813    1.47587985
 H                  6.41580597    3.91674744    1.28465778
 C                  3.29572311   -1.31625284    2.15473898
 H                  2.94794073   -2.33426981    2.30302849
 C                 18.14080519    0.87729009    1.79241042
 H                 19.20584610    1.05548787    1.68527664
 C                  4.67883643    2.65551445    1.51305747
 H                  3.96594361    3.45872441    1.35506423
 C                 11.20543407    4.05028314    2.24529801
 H                 11.47975095    3.68288830    3.22992919
 C                  4.19337252    1.33353581    1.74163849
 C                  5.66280979   -2.08002738    2.30954949
 H                  5.33006108   -3.10841972    2.41500891
 C                  9.25511111   -2.20830762    4.67543957
 H                  8.95505758   -1.27164677    5.13626705
 C                 10.19270599   -3.40837313    2.79294023
 H                 10.62333428   -3.40222254    1.79621891
 C                  2.81333772    1.02725346    1.76270945
 H                  2.09316078    1.82613516    1.61284637
 C                  9.08361135   -3.41435276    5.35910903
 H                  8.65616510   -3.41150313    6.35735879
 C                  9.45928581   -4.62051441    4.75866375
 H                  9.32150192   -5.55864802    5.28785890
 C                 11.37039677    5.40067874    1.92815768
 H                 11.76680202    6.08430074    2.67296954
 C                 10.34094048    3.63345607    0.02224784
 H                  9.94119415    2.94425413   -0.71540699
 C                  2.37599545   -0.27984994    1.96851325
 H                  1.31267231   -0.49612983    1.97899725
 C                 10.01708033   -4.61429335    3.47525546
 H                 10.31478309   -5.54696957    3.00549582
 C                 11.02807567    5.86912165    0.65541724
 H                 11.16085433    6.91781916    0.40695805
 C                 10.51007099    4.98288595   -0.29567115
 H                 10.23832558    5.34130695   -1.28404046
 C                  5.13331073    0.27978509    1.94912865

 1 6 1.0 7 1.0
 2 10 1.0 16 1.0
 3 7 1.5 15 1.5 26 1.5
 4 11 1.0 13 1.5 16 1.5
 5 15 1.5 17 1.5 27 1.5
 6 9 1.5 13 1.5
 7 23 1.5
 8 15 1.5 19 1.5 29 1.5
 9 14 1.5 26 1.0
 10 12 1.5 36 1.5
 11 12 1.5 34 1.5
 12 25 1.5
 13 31 1.0
 14 16 1.5 33 1.0
 15
 16
 17 18 1.0 23 2.0
 18
 19 20 1.0 21 2.0
 20
 21 22 1.0 26 1.5
 22
 23 24 1.0
 24
 25 32 1.5 46 1.5
 26
 27 28 1.0 40 1.5
 28
 29 30 1.0 40 1.5
 30
 31 49 1.5 51 1.5
 32 38 1.5 47 1.5
 33 44 1.5 61 1.5
 34 35 1.0 47 2.0
 35
 36 37 1.0 42 2.0
 37
 38 39 1.0 63 1.5
 39
 40 41 1.0
 41
 42 43 1.0 46 1.5
 43
 44 45 1.0 59 1.5
 45
 46 53 1.5
 47 48 1.0
 48
 49 50 1.0 55 1.5
 50
 51 52 1.0 65 1.5
 52
 53 54 1.0 63 1.5
 54
 55 56 1.0 57 1.5
 56
 57 58 1.0 65 1.5
 58
 59 60 1.0 67 1.5
 60
 61 62 1.0 69 1.5
 62
 63 64 1.0
 64
 65 66 1.0
 66
 67 68 1.0 69 1.5
 68
 69 70 1.0
 70
 71 76 1.0 77 1.0
 72 80 1.0 86 1.0
 73 77 1.5 85 1.5 95 1.5
 74 81 1.0 83 1.5 86 1.5
 75 85 1.5 87 1.5 96 1.5
 76 79 1.5 83 1.5
 77 93 1.5
 78 85 1.5 89 1.5 98 1.5
 79 84 1.5 95 1.0
 80 82 1.5 105 1.5
 81 82 1.5 103 1.5
 82 140 1.5
 83 100 1.0
 84 86 1.5 102 1.0
 85
 86
 87 88 1.0 93 2.0
 88
 89 90 1.0 91 2.0
 90
 91 92 1.0 95 1.5
 92
 93 94 1.0
 94
 95
 96 97 1.0 109 1.5
 97
 98 99 1.0 109 1.5
 99
 100 118 1.5 120 1.5
 101 107 1.5 116 1.5 140 1.5
 102 113 1.5 130 1.5
 103 104 1.0 116 2.0
 104
 105 106 1.0 111 2.0
 106
 107 108 1.0 132 1.5
 108
 109 110 1.0
 110
 111 112 1.0 115 1.5
 112
 113 114 1.0 128 1.5
 114
 115 122 1.5 140 1.5
 116 117 1.0
 117
 118 119 1.0 124 1.5
 119
 120 121 1.0 134 1.5
 121
 122 123 1.0 132 1.5
 123
 124 125 1.0 126 1.5
 125
 126 127 1.0 134 1.5
 127
 128 129 1.0 136 1.5
 129
 130 131 1.0 138 1.5
 131
 132 133 1.0
 133
 134 135 1.0
 135
 136 137 1.0 138 1.5
 137
 138 139 1.0
 139
 140

