%chk=/home/cmw414/pcpl_transfer_integral/rc_stack/6_9A/dimer/dimer.chk
%nprocshared=20
%mem=110GB
#p b3lyp/6-311g(d,p) nosymm pop=full iop(3/33=1) punch=mo

c47

2 1
 O                  1.83062160   -3.21731110   -4.39473714
 O                 -1.90969840    0.73677190   -4.39479014
 C                  3.66180360   -1.70057210   -4.63209214
 C                 -1.42930040   -1.63629410   -4.63381014
 C                  5.93894060   -2.65795410   -4.49743014
 C                  0.92349360   -2.20421110   -4.53403014
 C                  3.16140160   -2.99209010   -4.39954714
 C                  5.62095860   -0.25903710   -5.00160914
 C                  1.35024060   -0.84424010   -4.63379414
 C                 -3.24047840    0.51154090   -4.39960514
 C                 -2.84603040   -1.88622910   -4.79771314
 C                 -3.74086840   -0.77998910   -4.63211014
 C                 -0.40778740   -2.62183310   -4.54413114
 C                  0.32872060    0.14130190   -4.54413614
 C                  5.07526060   -1.54105310   -4.70603314
 C                 -1.00256140   -0.27632310   -4.53406114
 C                  5.36207360   -3.93592710   -4.23368614
 H                  6.01684960   -4.78697510   -4.07459114
 C                  4.71181460    0.81633090   -5.24419814
 H                  5.11510560    1.78696190   -5.51745214
 C                  3.34876260    0.65759090   -5.14872714
 H                  2.71686960    1.50580890   -5.35915714
 C                  3.99439860   -4.10560910   -4.19317314
 H                  3.54084460   -5.07356710   -4.01269814
 C                 -5.15432340   -0.93953010   -4.70603214
 C                  2.76697560   -0.59432610   -4.79772514
 C                  7.33683260   -2.45853910   -4.56728914
 H                  7.99924660   -3.30307610   -4.40209214
 C                  7.01956460   -0.10784810   -5.06927914
 H                  7.43753960    0.86785590   -5.29862414
 C                 -0.68074840   -4.07783910   -4.35670714
 C                 -5.70000640   -2.22156710   -5.00154414
 C                  0.60165760    1.59730790   -4.35667914
 C                 -3.42780040   -3.13817710   -5.14862714
 H                 -2.79589240   -3.98640010   -5.35899914
 C                 -4.07348840    1.62505690   -4.19326314
 H                 -3.61994440    2.59302490   -4.01281714
 C                 -7.09861140   -2.37277710   -5.06919614
 H                 -7.51657640   -3.34849710   -5.29849214
 C                  7.86446560   -1.19949710   -4.84757714
 H                  8.94014660   -1.06624810   -4.89953214
 C                 -5.44116140    1.45535790   -4.23377114
 H                 -6.09594640    2.30640290   -4.07470114
 C                  1.15851260    2.04368090   -3.14923814
 H                  1.39793960    1.32336190   -2.37235814
 C                 -6.01801540    0.17736890   -4.49746714
 C                 -4.79085140   -3.29694010   -5.24407814
 H                 -5.19413240   -4.26759210   -5.51726914
 C                 -1.23776640   -4.52420710   -3.14934114
 H                 -1.47728840   -3.80388710   -2.37249114
 C                 -0.36710040   -5.01043610   -5.35582414
 H                  0.07213560   -4.66815010   -6.28794214
 C                 -7.41590540   -0.02206710   -4.56730814
 H                 -8.07832840    0.82246890   -4.40214014
 C                 -1.49768140   -5.88251710   -2.95236614
 H                 -1.93314140   -6.21722510   -2.01558114
 C                 -1.19986440   -6.80679710   -3.95909514
 H                 -1.40638840   -7.86212310   -3.80822614
 C                  1.41839260    3.40199190   -2.95222914
 H                  1.85373260    3.73670190   -2.01538914
 C                  0.28811760    2.52990590   -5.35582914
 H                 -0.15100340    2.18761790   -6.28800014
 C                 -7.94352440   -1.28112710   -4.84753814
 H                 -9.01920340   -1.41439310   -4.89947914
 C                 -0.63111040   -6.36785710   -5.15999514
 H                 -0.39357840   -7.08104710   -5.94365614
 C                  1.12069960    4.32626990   -3.95899614
 H                  1.32719860    5.38159790   -3.80810014
 C                  0.55209660    3.88732690   -5.15996714
 H                  0.31465560    4.60051690   -5.94365514
 O                 12.24913308   -1.24197860    3.00929613
 O                  8.25269863    2.17129504    1.59407855
 C                 13.97819873    0.20377337    2.21544769
 C                  8.89495923   -0.08548630    2.23734701
 C                 16.31185356   -0.47950749    2.67069428
 C                 11.27856086   -0.41497063    2.51664744
 C                 13.56172163   -0.94371155    2.90994268
 C                 15.84215406    1.54007191    1.32503712
 C                 11.61477900    0.83964579    1.92126353
 C                  6.94026959    1.86949220    1.68448139
 C                  7.50106660   -0.47438109    2.18960008
 C                  6.53148018    0.55160717    1.94633772
 C                  9.97861501   -0.89727239    2.67267651
 C                 10.52815636    1.71714150    1.65277287
 C                 15.37881188    0.42139962    2.07510566
 C                  9.22787675    1.24222918    1.82757308
 C                 15.81767107   -1.60822329    3.38995483
 H                 16.52530431   -2.29486407    3.84394289
 C                 14.86710163    2.38687648    0.71347899
 H                 15.20887991    3.21503788    0.09966125
 C                 13.51636571    2.18130963    0.87309911
 H                 12.83259778    2.84808109    0.37217940
 C                 14.46396360   -1.84439602    3.50250128
 H                 14.07339422   -2.70750879    4.02948995
 C                 13.01408839    1.10840624    1.66402926
 C                 17.69419730   -0.22442921    2.51966600
 H                 18.40891318   -0.90226993    2.97687301
 C                 17.22840650    1.75125009    1.19372054
 H                 17.58376907    2.60121129    0.61875626
 C                  9.80080645   -2.19836571    3.38340092
 C                  4.67973987   -1.05547457    2.14930678
 C                 10.69975417    3.15558594    1.29080606
 C                  7.01039232   -1.80448729    2.32753853
 H                  7.70112021   -2.62544013    2.43698157
 C                  6.03120365    2.92138813    1.47587985
 H                  6.41580597    3.91674744    1.28465778
 C                  3.29572311   -1.31625284    2.15473898
 H                  2.94794073   -2.33426981    2.30302849
 C                 18.14080519    0.87729009    1.79241042
 H                 19.20584610    1.05548787    1.68527664
 C                  4.67883643    2.65551445    1.51305747
 H                  3.96594361    3.45872441    1.35506423
 C                 11.20543407    4.05028314    2.24529801
 H                 11.47975095    3.68288830    3.22992919
 C                  4.19337252    1.33353581    1.74163849
 C                  5.66280979   -2.08002738    2.30954949
 H                  5.33006108   -3.10841972    2.41500891
 C                  9.25511111   -2.20830762    4.67543957
 H                  8.95505758   -1.27164677    5.13626705
 C                 10.19270599   -3.40837313    2.79294023
 H                 10.62333428   -3.40222254    1.79621891
 C                  2.81333772    1.02725346    1.76270945
 H                  2.09316078    1.82613516    1.61284637
 C                  9.08361135   -3.41435276    5.35910903
 H                  8.65616510   -3.41150313    6.35735879
 C                  9.45928581   -4.62051441    4.75866375
 H                  9.32150192   -5.55864802    5.28785890
 C                 11.37039677    5.40067874    1.92815768
 H                 11.76680202    6.08430074    2.67296954
 C                 10.34094048    3.63345607    0.02224784
 H                  9.94119415    2.94425413   -0.71540699
 C                  2.37599545   -0.27984994    1.96851325
 H                  1.31267231   -0.49612983    1.97899725
 C                 10.01708033   -4.61429335    3.47525546
 H                 10.31478309   -5.54696957    3.00549582
 C                 11.02807567    5.86912165    0.65541724
 H                 11.16085433    6.91781916    0.40695805
 C                 10.51007099    4.98288595   -0.29567115
 H                 10.23832558    5.34130695   -1.28404046
 C                  5.13331073    0.27978509    1.94912865

 1 6 1.0 7 1.0
 2 10 1.0 16 1.0
 3 7 1.5 15 1.5 26 1.5
 4 11 1.0 13 1.5 16 1.5
 5 15 1.5 17 1.5 27 1.5
 6 9 1.5 13 1.5
 7 23 1.5
 8 15 1.5 19 1.5 29 1.5
 9 14 1.5 26 1.0
 10 12 1.5 36 1.5
 11 12 1.5 34 1.5
 12 25 1.5
 13 31 1.0
 14 16 1.5 33 1.0
 15
 16
 17 18 1.0 23 2.0
 18
 19 20 1.0 21 2.0
 20
 21 22 1.0 26 1.5
 22
 23 24 1.0
 24
 25 32 1.5 46 1.5
 26
 27 28 1.0 40 1.5
 28
 29 30 1.0 40 1.5
 30
 31 49 1.5 51 1.5
 32 38 1.5 47 1.5
 33 44 1.5 61 1.5
 34 35 1.0 47 2.0
 35
 36 37 1.0 42 2.0
 37
 38 39 1.0 63 1.5
 39
 40 41 1.0
 41
 42 43 1.0 46 1.5
 43
 44 45 1.0 59 1.5
 45
 46 53 1.5
 47 48 1.0
 48
 49 50 1.0 55 1.5
 50
 51 52 1.0 65 1.5
 52
 53 54 1.0 63 1.5
 54
 55 56 1.0 57 1.5
 56
 57 58 1.0 65 1.5
 58
 59 60 1.0 67 1.5
 60
 61 62 1.0 69 1.5
 62
 63 64 1.0
 64
 65 66 1.0
 66
 67 68 1.0 69 1.5
 68
 69 70 1.0
 70
 71 76 1.0 77 1.0
 72 80 1.0 86 1.0
 73 77 1.5 85 1.5 95 1.5
 74 81 1.0 83 1.5 86 1.5
 75 85 1.5 87 1.5 96 1.5
 76 79 1.5 83 1.5
 77 93 1.5
 78 85 1.5 89 1.5 98 1.5
 79 84 1.5 95 1.0
 80 82 1.5 105 1.5
 81 82 1.5 103 1.5
 82 140 1.5
 83 100 1.0
 84 86 1.5 102 1.0
 85
 86
 87 88 1.0 93 2.0
 88
 89 90 1.0 91 2.0
 90
 91 92 1.0 95 1.5
 92
 93 94 1.0
 94
 95
 96 97 1.0 109 1.5
 97
 98 99 1.0 109 1.5
 99
 100 118 1.5 120 1.5
 101 107 1.5 116 1.5 140 1.5
 102 113 1.5 130 1.5
 103 104 1.0 116 2.0
 104
 105 106 1.0 111 2.0
 106
 107 108 1.0 132 1.5
 108
 109 110 1.0
 110
 111 112 1.0 115 1.5
 112
 113 114 1.0 128 1.5
 114
 115 122 1.5 140 1.5
 116 117 1.0
 117
 118 119 1.0 124 1.5
 119
 120 121 1.0 134 1.5
 121
 122 123 1.0 132 1.5
 123
 124 125 1.0 126 1.5
 125
 126 127 1.0 134 1.5
 127
 128 129 1.0 136 1.5
 129
 130 131 1.0 138 1.5
 131
 132 133 1.0
 133
 134 135 1.0
 135
 136 137 1.0 138 1.5
 137
 138 139 1.0
 139
 140

