%chk=/oasis/projects/nsf/lhu120/cmw414/pent_stack/3_8A/dimer/dimer.chk
%nprocshared=24
%mem=110GB
#p b3lyp/6-311g(d,p) nosymm pop=full iop(3/33=1) punch=mo

c47

0 1
 C                 -8.71269653   -6.57702505    3.64379411
 C                 -8.68469653   -5.72102505    2.58779411
 C                 -8.06369653   -6.03902505    1.35279411
 C                 -8.04869653   -5.14002505    0.26779411
 C                 -7.39369653   -5.47302505   -0.95020589
 C                 -7.34469653   -4.60902505   -2.03220589
 C                 -6.79669653   -6.81702505   -1.08420589
 C                 -6.91169653   -7.66102505   -0.02620589
 C                 -7.43269653   -7.35702505    1.21879411
 C                 -7.55869653   -8.22602505    2.30979411
 C                 -8.07069653   -7.90902505    3.51479411
 H                 -9.20269653   -6.25802505    4.71079411
 H                 -9.09369653   -4.69702505    2.68079411
 H                 -8.48269653   -4.12702505    0.40379411
 H                 -7.81169653   -3.59102505   -1.88720589
 H                 -6.45369653   -8.67202505   -0.11820589
 H                 -7.10169653   -9.23202505    2.23079411
 H                 -8.08169653   -8.58802505    4.39179411
 C                 -6.74469653   -4.92802505   -3.27020589
 C                 -6.19669653   -7.13602505   -2.32220589
 C                 -6.14669653   -6.27302505   -3.40420589
 C                 -6.62969653   -4.08502505   -4.32820589
 H                 -5.72869653   -8.15502505   -2.46720589
 C                 -5.49269653   -6.60602505   -4.62220589
 C                 -6.10769653   -4.38902505   -5.57320589
 H                 -7.08769653   -3.07402505   -4.23620589
 C                 -5.47769653   -5.70702505   -5.70720589
 H                 -5.05869653   -7.61802505   -4.75820589
 C                 -5.98269653   -3.52002505   -6.66420589
 C                 -4.85669653   -6.02402505   -6.94220589
 C                 -5.47069653   -3.83702505   -7.86920589
 H                 -6.43969653   -2.51402505   -6.58520589
 C                 -4.82869653   -5.16902505   -7.99820589
 H                 -4.44769653   -7.04902505   -7.03520589
 H                 -5.45869653   -3.15802505   -8.74620589
 H                 -4.33869653   -5.48802505   -9.06520589
 C                 -5.38438367   -5.21383215    4.87017604
 C                 -5.35638367   -4.35783215    3.81417604
 C                 -4.73538367   -4.67583215    2.57917604
 C                 -4.72038367   -3.77683215    1.49417604
 C                 -4.06538367   -4.10983215    0.27617604
 C                 -4.01638367   -3.24583215   -0.80582396
 C                 -3.46838367   -5.45383215    0.14217604
 C                 -3.58338367   -6.29783215    1.20017604
 C                 -4.10438367   -5.99383215    2.44517604
 C                 -4.23038367   -6.86283215    3.53617604
 C                 -4.74238367   -6.54583215    4.74117604
 H                 -5.87438367   -4.89483215    5.93717604
 H                 -5.76538367   -3.33383215    3.90717604
 H                 -5.15438367   -2.76383215    1.63017604
 H                 -4.48338367   -2.22783215   -0.66082396
 H                 -3.12538367   -7.30883215    1.10817604
 H                 -3.77338367   -7.86883215    3.45717604
 H                 -4.75338367   -7.22483215    5.61817604
 C                 -3.41638367   -3.56483215   -2.04382396
 C                 -2.86838367   -5.77283215   -1.09582396
 C                 -2.81838367   -4.90983215   -2.17782396
 C                 -3.30138367   -2.72183215   -3.10182396
 H                 -2.40038367   -6.79183215   -1.24082396
 C                 -2.16438367   -5.24283215   -3.39582396
 C                 -2.77938367   -3.02583215   -4.34682396
 H                 -3.75938367   -1.71083215   -3.00982396
 C                 -2.14938367   -4.34383215   -4.48082396
 H                 -1.73038367   -6.25483215   -3.53182396
 C                 -2.65438367   -2.15683215   -5.43782396
 C                 -1.52838367   -4.66083215   -5.71582396
 C                 -2.14238367   -2.47383215   -6.64282396
 H                 -3.11138367   -1.15083215   -5.35882396
 C                 -1.50038367   -3.80583215   -6.77182396
 H                 -1.11938367   -5.68583215   -5.80882396
 H                 -2.13038367   -1.79483215   -7.51982396
 H                 -1.01038367   -4.12483215   -7.83882396

 1 2 2.0 11 1.0 12 1.0
 2 3 1.5 13 1.0
 3 4 1.5 9 1.0
 4 5 1.5 14 1.0
 5 6 2.0 7 1.0
 6 15 1.0 19 1.5
 7 8 2.0 20 1.5
 8 9 2.0 16 1.0
 9 10 1.5
 10 11 2.0 17 1.0
 11 18 1.0
 12
 13
 14
 15
 16
 17
 18
 19 21 1.0 22 2.0
 20 21 2.0 23 1.0
 21 24 1.5
 22 25 2.0 26 1.0
 23
 24 27 1.5 28 1.0
 25 27 1.0 29 1.5
 26
 27 30 1.5
 28
 29 31 2.0 32 1.0
 30 33 2.0 34 1.0
 31 33 1.0 35 1.0
 32
 33 36 1.0
 34
 35
 36
 37 38 2.0 47 1.0 48 1.0
 38 39 1.5 49 1.0
 39 40 1.5 45 1.0
 40 41 1.5 50 1.0
 41 42 2.0 43 1.0
 42 51 1.0 55 1.5
 43 44 2.0 56 1.5
 44 45 2.0 52 1.0
 45 46 1.5
 46 47 2.0 53 1.0
 47 54 1.0
 48
 49
 50
 51
 52
 53
 54
 55 57 1.0 58 2.0
 56 57 2.0 59 1.0
 57 60 1.5
 58 61 2.0 62 1.0
 59
 60 63 1.5 64 1.0
 61 63 1.0 65 1.5
 62
 63 66 1.5
 64
 65 67 2.0 68 1.0
 66 69 2.0 70 1.0
 67 69 1.0 71 1.0
 68
 69 72 1.0
 70
 71
 72


