%chk=/oasis/projects/nsf/lhu120/cmw414/rc_slip_x_new/4_0A/dimer/dimer.chk
%mem=110GB
#p b3lyp/6-311g(d,p) nosymm pop=full iop(3/33=1) punch=mo

c47

2 1
 O                  1.86343256   -2.18814168   -0.63312396
 O                 -1.87688744    1.76594132   -0.63317696
 C                  3.69461456   -0.67140268   -0.87047896
 C                 -1.39648944   -0.60712468   -0.87219696
 C                  5.97175156   -1.62878468   -0.73581696
 C                  0.95630456   -1.17504168   -0.77241696
 C                  3.19421256   -1.96292068   -0.63793396
 C                  5.65376956    0.77013232   -1.23999596
 C                  1.38305156    0.18492932   -0.87218096
 C                 -3.20766744    1.54071032   -0.63799196
 C                 -2.81321944   -0.85705968   -1.03609996
 C                 -3.70805744    0.24918032   -0.87049696
 C                 -0.37497644   -1.59266368   -0.78251796
 C                  0.36153156    1.17047132   -0.78252296
 C                  5.10807156   -0.51188368   -0.94441996
 C                 -0.96975044    0.75284632   -0.77244796
 C                  5.39488456   -2.90675768   -0.47207296
 H                  6.04966056   -3.75780568   -0.31297796
 C                  4.74462556    1.84550032   -1.48258496
 H                  5.14791656    2.81613132   -1.75583896
 C                  3.38157356    1.68676032   -1.38711396
 H                  2.74968056    2.53497832   -1.59754396
 C                  4.02720956   -3.07643968   -0.43155996
 H                  3.57365556   -4.04439768   -0.25108496
 C                 -5.12151244    0.08963932   -0.94441896
 C                  2.79978656    0.43484332   -1.03611196
 C                  7.36964356   -1.42936968   -0.80567596
 H                  8.03205756   -2.27390668   -0.64047896
 C                  7.05237556    0.92132132   -1.30766596
 H                  7.47035056    1.89702532   -1.53701096
 C                 -0.64793744   -3.04866968   -0.59509396
 C                 -5.66719544   -1.19239768   -1.23993096
 C                  0.63446856    2.62647732   -0.59506596
 C                 -3.39498944   -2.10900768   -1.38701396
 H                 -2.76308144   -2.95723068   -1.59738596
 C                 -4.04067744    2.65422632   -0.43164996
 H                 -3.58713344    3.62219432   -0.25120396
 C                 -7.06580044   -1.34360768   -1.30758296
 H                 -7.48376544   -2.31932768   -1.53687896
 C                  7.89727656   -0.17032768   -1.08596396
 H                  8.97295756   -0.03707868   -1.13791896
 C                 -5.40835044    2.48452732   -0.47215796
 H                 -6.06313544    3.33557232   -0.31308796
 C                  1.19132356    3.07285032    0.61237504
 H                  1.43075056    2.35253132    1.38925504
 C                 -5.98520444    1.20653832   -0.73585396
 C                 -4.75804044   -2.26777068   -1.48246496
 H                 -5.16132144   -3.23842268   -1.75565596
 C                 -1.20495544   -3.49503768    0.61227204
 H                 -1.44447744   -2.77471768    1.38912204
 C                 -0.33428944   -3.98126668   -1.59421096
 H                  0.10494656   -3.63898068   -2.52632896
 C                 -7.38309444    1.00710232   -0.80569496
 H                 -8.04551744    1.85163832   -0.64052696
 C                 -1.46487044   -4.85334768    0.80924704
 H                 -1.90033044   -5.18805568    1.74603204
 C                 -1.16705344   -5.77762768   -0.19748196
 H                 -1.37357744   -6.83295368   -0.04661296
 C                  1.45120356    4.43116132    0.80938404
 H                  1.88654356    4.76587132    1.74622404
 C                  0.32092856    3.55907532   -1.59421596
 H                 -0.11819244    3.21678732   -2.52638696
 C                 -7.91071344   -0.25195768   -1.08592496
 H                 -8.98639244   -0.38522368   -1.13786596
 C                 -0.59829944   -5.33868768   -1.39838196
 H                 -0.36076744   -6.05187768   -2.18204296
 C                  1.15351056    5.35543932   -0.19738296
 H                  1.36000956    6.41076732   -0.04648696
 C                  0.58490756    4.91649632   -1.39835396
 H                  0.34746656    5.62968632   -2.18204196
 O                 16.16890070   -0.44553700    2.97609071
 O                 12.17246625    2.96773664    1.56087313
 C                 17.89796635    1.00021497    2.18224227
 C                 12.81472685    0.71095530    2.20414159
 C                 20.23162118    0.31693411    2.63748886
 C                 15.19832848    0.38147097    2.48344202
 C                 17.48148925   -0.14726995    2.87673726
 C                 19.76192168    2.33651351    1.29183170
 C                 15.53454662    1.63608739    1.88805811
 C                 10.86003721    2.66593380    1.65127597
 C                 11.42083422    0.32206051    2.15639466
 C                 10.45124780    1.34804877    1.91313230
 C                 13.89838263   -0.10083079    2.63947109
 C                 14.44792398    2.51358310    1.61956745
 C                 19.29857950    1.21784122    2.04190024
 C                 13.14764437    2.03867078    1.79436766
 C                 19.73743869   -0.81178169    3.35674941
 H                 20.44507193   -1.49842247    3.81073747
 C                 18.78686925    3.18331808    0.68027357
 H                 19.12864753    4.01147948    0.06645583
 C                 17.43613333    2.97775123    0.83989369
 H                 16.75236540    3.64452269    0.33897398
 C                 18.38373122   -1.04795442    3.46929586
 H                 17.99316184   -1.91106719    3.99628453
 C                 16.93385601    1.90484784    1.63082384
 C                 21.61396492    0.57201239    2.48646058
 H                 22.32868080   -0.10582833    2.94366759
 C                 21.14817412    2.54769169    1.16051512
 H                 21.50353669    3.39765289    0.58555084
 C                 13.72057407   -1.40192411    3.35019550
 C                  8.59950749   -0.25903297    2.11610136
 C                 14.61952179    3.95202754    1.25760064
 C                 10.93015994   -1.00804569    2.29433311
 H                 11.62088783   -1.82899853    2.40377615
 C                  9.95097127    3.71782973    1.44267443
 H                 10.33557359    4.71318904    1.25145236
 C                  7.21549073   -0.51981124    2.12153356
 H                  6.86770835   -1.53782821    2.26982307
 C                 22.06057281    1.67373169    1.75920500
 H                 23.12561372    1.85192947    1.65207122
 C                  8.59860405    3.45195605    1.47985205
 H                  7.88571123    4.25516601    1.32185881
 C                 15.12520169    4.84672474    2.21209259
 H                 15.39951857    4.47932990    3.19672377
 C                  8.11314014    2.12997741    1.70843307
 C                  9.58257741   -1.28358578    2.27634407
 C                 13.17487873   -1.41186602    4.64223415
 H                 12.87482520   -0.47520517    5.10306163
 C                 14.11247361   -2.61193153    2.75973481
 H                 14.54310190   -2.60578094    1.76301349
 C                  6.73310534    1.82369506    1.72950403
 H                  6.01292840    2.62257676    1.57964095
 C                 13.00337897   -2.61791116    5.32590361
 H                 12.57593272   -2.61506153    6.32415337
 C                 13.37905343   -3.82407281    4.72545833
 H                 13.24126954   -4.76220642    5.25465348
 C                 15.29016439    6.19712034    1.89495226
 H                 15.68656964    6.88074234    2.63976412
 C                 14.26070810    4.42989767   -0.01095758
 H                 13.86096177    3.74069573   -0.74861241
 C                  6.29576307    0.51659166    1.93530783
 C                 13.93684795   -3.81785175    3.44205004
 H                 14.23455071   -4.75052797    2.97229040
 C                 14.94784329    6.66556325    0.62221182
 H                 15.08062195    7.71426076    0.37375263
 C                 14.42983861    5.77932755   -0.32887657
 H                 14.15809320    6.13774855   -1.31724588
 C                  9.05307835    1.07622669    1.91592323
 H                  9.25473638   -2.29681044    2.38024808
 H                  5.24728185    0.30333062    1.94564549

 1 6 1.0 7 1.0
 2 10 1.0 16 1.0
 3 7 1.5 15 1.5 26 1.5
 4 11 1.0 13 1.5 16 1.5
 5 15 1.5 17 1.5 27 1.5
 6 9 1.5 13 1.5
 7 23 1.5
 8 15 1.5 19 1.5 29 1.5
 9 14 1.5 26 1.0
 10 12 1.5 36 1.5
 11 12 1.5 34 1.5
 12 25 1.5
 13 31 1.0
 14 16 1.5 33 1.0
 15
 16
 17 18 1.0 23 2.0
 18
 19 20 1.0 21 2.0
 20
 21 22 1.0 26 1.5
 22
 23 24 1.0
 24
 25 32 1.5 46 1.5
 26
 27 28 1.0 40 1.5
 28
 29 30 1.0 40 1.5
 30
 31 49 1.5 51 1.5
 32 38 1.5 47 1.5
 33 44 1.5 61 1.5
 34 35 1.0 47 2.0
 35
 36 37 1.0 42 2.0
 37
 38 39 1.0 63 1.5
 39
 40 41 1.0
 41
 42 43 1.0 46 1.5
 43
 44 45 1.0 59 1.5
 45
 46 53 1.5
 47 48 1.0
 48
 49 50 1.0 55 1.5
 50
 51 52 1.0 65 1.5
 52
 53 54 1.0 63 1.5
 54
 55 56 1.0 57 1.5
 56
 57 58 1.0 65 1.5
 58
 59 60 1.0 67 1.5
 60
 61 62 1.0 69 1.5
 62
 63 64 1.0
 64
 65 66 1.0
 66
 67 68 1.0 69 1.5
 68
 69 70 1.0
 70
 71 76 1.0 77 1.0
 72 80 1.0 86 1.0
 73 77 1.5 85 1.5 95 1.5
 74 81 1.0 83 1.5 86 1.5
 75 85 1.5 87 1.5 96 1.5
 76 79 1.5 83 1.5
 77 93 1.5
 78 85 1.5 89 1.5 98 1.5
 79 84 1.5 95 1.0
 80 82 1.5 105 1.5
 81 82 1.5 103 1.5
 82 140 1.5
 83 100 1.0
 84 86 1.5 102 1.0
 85
 86
 87 88 1.0 93 2.0
 88
 89 90 1.0 91 2.0
 90
 91 92 1.0 95 1.5
 92
 93 94 1.0
 94
 95
 96 97 1.0 109 1.5
 97
 98 99 1.0 109 1.5
 99
 100 118 1.5 120 1.5
 101 107 1.5 116 1.5 140 1.5
 102 113 1.5 130 1.5
 103 104 1.0 116 2.0
 104
 105 106 1.0 111 2.0
 106
 107 108 1.0 132 1.5
 108
 109 110 1.0
 110
 111 112 1.0 115 1.5
 112
 113 114 1.0 128 1.5
 114
 115 122 1.5 140 1.5
 116 117 1.0
 117
 118 119 1.0 124 1.5
 119
 120 121 1.0 134 1.5
 121
 122 123 1.0 132 1.5
 123
 124 125 1.0 126 1.5
 125
 126 127 1.0 134 1.5
 127
 128 129 1.0 136 1.5
 129
 130 131 1.0 138 1.5
 131
 132 133 1.0
 133
 134 135 1.0
 135
 136 137 1.0 138 1.5
 137
 138 139 1.0
 139
 140









































