%chk=/oasis/projects/nsf/lhu120/cmw414/pent_slip_x/1_4A/dimer/dimer.chk
%nprocshared=24
%mem=110GB
#p b3lyp/6-311g(d,p) nosymm pop=full iop(3/33=1) punch=mo

c47

0 1
 C                 -8.33975963   -6.27001690    2.32976821
 C                 -8.31175963   -5.41401690    1.27376821
 C                 -7.69075963   -5.73201690    0.03876821
 C                 -7.67575963   -4.83301690   -1.04623179
 C                 -7.02075963   -5.16601690   -2.26423179
 C                 -6.97175963   -4.30201690   -3.34623179
 C                 -6.42375963   -6.51001690   -2.39823179
 C                 -6.53875963   -7.35401690   -1.34023179
 C                 -7.05975963   -7.05001690   -0.09523179
 C                 -7.18575963   -7.91901690    0.99576821
 C                 -7.69775963   -7.60201690    2.20076821
 H                 -8.82975963   -5.95101690    3.39676821
 H                 -8.72075963   -4.39001690    1.36676821
 H                 -8.10975963   -3.82001690   -0.91023179
 H                 -7.43875963   -3.28401690   -3.20123179
 H                 -6.08075963   -8.36501690   -1.43223179
 H                 -6.72875963   -8.92501690    0.91676821
 H                 -7.70875963   -8.28101690    3.07776821
 C                 -6.37175963   -4.62101690   -4.58423179
 C                 -5.82375963   -6.82901690   -3.63623179
 C                 -5.77375963   -5.96601690   -4.71823179
 C                 -6.25675963   -3.77801690   -5.64223179
 H                 -5.35575963   -7.84801690   -3.78123179
 C                 -5.11975963   -6.29901690   -5.93623179
 C                 -5.73475963   -4.08201690   -6.88723179
 H                 -6.71475963   -2.76701690   -5.55023179
 C                 -5.10475963   -5.40001690   -7.02123179
 H                 -4.68575963   -7.31101690   -6.07223179
 C                 -5.60975963   -3.21301690   -7.97823179
 C                 -4.48375963   -5.71701690   -8.25623179
 C                 -5.09775963   -3.53001690   -9.18323179
 H                 -6.06675963   -2.20701690   -7.89923179
 C                 -4.45575963   -4.86201690   -9.31223179
 H                 -4.07475963   -6.74201690   -8.34923179
 H                 -5.08575963   -2.85101690  -10.06023179
 H                 -3.96575963   -5.18101690  -10.37923179
 C                 -5.55955519   -5.28557798    4.80563065
 C                 -5.53155519   -4.42957798    3.74963065
 C                 -4.91055519   -4.74757798    2.51463065
 C                 -4.89555519   -3.84857798    1.42963065
 C                 -4.24055519   -4.18157798    0.21163065
 C                 -4.19155519   -3.31757798   -0.87036935
 C                 -3.64355519   -5.52557798    0.07763065
 C                 -3.75855519   -6.36957798    1.13563065
 C                 -4.27955519   -6.06557798    2.38063065
 C                 -4.40555519   -6.93457798    3.47163065
 C                 -4.91755519   -6.61757798    4.67663065
 H                 -6.04955519   -4.96657798    5.87263065
 H                 -5.94055519   -3.40557798    3.84263065
 H                 -5.32955519   -2.83557798    1.56563065
 H                 -4.65855519   -2.29957798   -0.72536935
 H                 -3.30055519   -7.38057798    1.04363065
 H                 -3.94855519   -7.94057798    3.39263065
 H                 -4.92855519   -7.29657798    5.55363065
 C                 -3.59155519   -3.63657798   -2.10836935
 C                 -3.04355519   -5.84457798   -1.16036935
 C                 -2.99355519   -4.98157798   -2.24236935
 C                 -3.47655519   -2.79357798   -3.16636935
 H                 -2.57555519   -6.86357798   -1.30536935
 C                 -2.33955519   -5.31457798   -3.46036935
 C                 -2.95455519   -3.09757798   -4.41136935
 H                 -3.93455519   -1.78257798   -3.07436935
 C                 -2.32455519   -4.41557798   -4.54536935
 H                 -1.90555519   -6.32657798   -3.59636935
 C                 -2.82955519   -2.22857798   -5.50236935
 C                 -1.70355519   -4.73257798   -5.78036935
 C                 -2.31755519   -2.54557798   -6.70736935
 H                 -3.28655519   -1.22257798   -5.42336935
 C                 -1.67555519   -3.87757798   -6.83636935
 H                 -1.29455519   -5.75757798   -5.87336935
 H                 -2.30555519   -1.86657798   -7.58436935
 H                 -1.18555519   -4.19657798   -7.90336935

 1 2 2.0 11 1.0 12 1.0
 2 3 1.5 13 1.0
 3 4 1.5 9 1.0
 4 5 1.5 14 1.0
 5 6 2.0 7 1.0
 6 15 1.0 19 1.5
 7 8 2.0 20 1.5
 8 9 2.0 16 1.0
 9 10 1.5
 10 11 2.0 17 1.0
 11 18 1.0
 12
 13
 14
 15
 16
 17
 18
 19 21 1.0 22 2.0
 20 21 2.0 23 1.0
 21 24 1.5
 22 25 2.0 26 1.0
 23
 24 27 1.5 28 1.0
 25 27 1.0 29 1.5
 26
 27 30 1.5
 28
 29 31 2.0 32 1.0
 30 33 2.0 34 1.0
 31 33 1.0 35 1.0
 32
 33 36 1.0
 34
 35
 36
 37 38 2.0 47 1.0 48 1.0
 38 39 1.5 49 1.0
 39 40 1.5 45 1.0
 40 41 1.5 50 1.0
 41 42 2.0 43 1.0
 42 51 1.0 55 1.5
 43 44 2.0 56 1.5
 44 45 2.0 52 1.0
 45 46 1.5
 46 47 2.0 53 1.0
 47 54 1.0
 48
 49
 50
 51
 52
 53
 54
 55 57 1.0 58 2.0
 56 57 2.0 59 1.0
 57 60 1.5
 58 61 2.0 62 1.0
 59
 60 63 1.5 64 1.0
 61 63 1.0 65 1.5
 62
 63 66 1.5
 64
 65 67 2.0 68 1.0
 66 69 2.0 70 1.0
 67 69 1.0 71 1.0
 68
 69 72 1.0
 70
 71
 72

